$*$$$$$$$$$$$$$$$$$$$$$$$$$$$$$$$$$$$$$$$$$$$$$$$$$$$$$$$$$$$$$$$$$
$*
$*                    NX v9.0.3.4 TRANSLATOR
$*                    FOR NX NASTRAN VERSION 9.0
$*
$*             FEM FILE: C:\Users\rtwatkin\Desktop\Test\model1_fem1.fem
$*             SIM FILE: C:\Users\rtwatkin\Desktop\Test\model1_sim1.sim
$*        ANALYSIS TYPE: Structural
$*        SOLUTION NAME: Solution 1
$*        SOLUTION TYPE: SOL 101 Linear Statics - Global Constraints
$*
$*    SOLVER INPUT FILE: model1_sim1-solution_1.dat
$*        CREATION DATE:  1-Feb-2016
$*        CREATION TIME: 13:36:22
$*             HOSTNAME: LMC-038032
$*      NASTRAN LICENSE: Desktop Bundle
$*
$*                UNITS: mm (milli-newton)
$*                      ... LENGTH : mm
$*                      ... TIME   : sec
$*                      ... MASS   : kilogram (kg)
$*                      ... TEMPERATURE : deg Celsius
$*                      ... FORCE  : milli-newton
$*                      ... THERMAL ENERGY : mN-mm (micro-joule)
$*
$* IMPORTANT NOTE:
$*     This banner was generated by NX and altering this information
$*     may compromise the NX post processing of results.
$*
$*$$$$$$$$$$$$$$$$$$$$$$$$$$$$$$$$$$$$$$$$$$$$$$$$$$$$$$$$$$$$$$$$$
$*
$*$$$$$$$$$$$$$$$$$$$$$$$$$$$$$$$$$$$
$*
$* FILE MANAGEMENT
$*
$*$$$$$$$$$$$$$$$$$$$$$$$$$$$$$$$$$$$
$*
$*
$*$$$$$$$$$$$$$$$$$$$$$$$$$$$$$$$$$$$
$*
$* EXECUTIVE CONTROL
$*
$*$$$$$$$$$$$$$$$$$$$$$$$$$$$$$$$$$$$
$*
ID,NASTRAN,model1_sim1-solution_1
SOL 101
CEND
$*
$*$$$$$$$$$$$$$$$$$$$$$$$$$$$$$$$$$$$
$*
$* CASE CONTROL
$*
$*$$$$$$$$$$$$$$$$$$$$$$$$$$$$$$$$$$$
$*
ECHO = NONE
SPC = 1
OUTPUT
DISPLACEMENT(PLOT,REAL) = ALL
SPCFORCES(PLOT,REAL) = ALL
STRESS(PLOT,REAL,VONMISES,CENTER) = ALL
$*  NX Step: Subcase - Static Loads 1
SUBCASE 1
LABEL = Subcase - Static Loads 1
LOAD = 2
$*
$*$$$$$$$$$$$$$$$$$$$$$$$$$$$$$$$$$$$
$*
$* BULK DATA
$*
$*$$$$$$$$$$$$$$$$$$$$$$$$$$$$$$$$$$$
$*
BEGIN BULK
$*
$* PARAM CARDS
$*
PARAM        F56     YES
PARAM      K6ROT100.0000
PARAM     OIBULK     YES
PARAM    OMACHPR     YES
PARAM       POST      -2
PARAM    POSTEXT     YES
PARAM    UNITSYS   MN-MM
$*
$* GRID CARDS
$*
GRID*               1108               00.0000000000E+000.0000000000E+00+
*       0.0000000000E+00               0
GRID*               1109               00.0000000000E+001.0000000000E+01+
*       0.0000000000E+00               0
GRID*               1110               01.0000000000E+020.0000000000E+00+
*       0.0000000000E+00               0
GRID*               1111               01.0000000000E+021.0000000000E+01+
*       0.0000000000E+00               0
GRID*                892               00.0000000000E+001.0000000000E+00+
*       0.0000000000E+00               0
GRID*                893               00.0000000000E+002.0000000000E+00+
*       0.0000000000E+00               0
GRID*                894               00.0000000000E+003.0000000000E+00+
*       0.0000000000E+00               0
GRID*                895               00.0000000000E+004.0000000000E+00+
*       0.0000000000E+00               0
GRID*                896               00.0000000000E+005.0000000000E+00+
*       0.0000000000E+00               0
GRID*                897               00.0000000000E+006.0000000000E+00+
*       0.0000000000E+00               0
GRID*                898               00.0000000000E+007.0000000000E+00+
*       0.0000000000E+00               0
GRID*                899               00.0000000000E+008.0000000000E+00+
*       0.0000000000E+00               0
GRID*                900               00.0000000000E+009.0000000000E+00+
*       0.0000000000E+00               0
GRID*                901               09.9000000000E+010.0000000000E+00+
*       0.0000000000E+00               0
GRID*                902               09.8000000000E+010.0000000000E+00+
*       0.0000000000E+00               0
GRID*                903               09.7000000000E+010.0000000000E+00+
*       0.0000000000E+00               0
GRID*                904               09.6000000000E+010.0000000000E+00+
*       0.0000000000E+00               0
GRID*                905               09.5000000000E+010.0000000000E+00+
*       0.0000000000E+00               0
GRID*                906               09.4000000000E+010.0000000000E+00+
*       0.0000000000E+00               0
GRID*                907               09.3000000000E+010.0000000000E+00+
*       0.0000000000E+00               0
GRID*                908               09.2000000000E+010.0000000000E+00+
*       0.0000000000E+00               0
GRID*                909               09.1000000000E+010.0000000000E+00+
*       0.0000000000E+00               0
GRID*                910               09.0000000000E+010.0000000000E+00+
*       0.0000000000E+00               0
GRID*                911               08.9000000000E+010.0000000000E+00+
*       0.0000000000E+00               0
GRID*                912               08.8000000000E+010.0000000000E+00+
*       0.0000000000E+00               0
GRID*                913               08.7000000000E+010.0000000000E+00+
*       0.0000000000E+00               0
GRID*                914               08.6000000000E+010.0000000000E+00+
*       0.0000000000E+00               0
GRID*                915               08.5000000000E+010.0000000000E+00+
*       0.0000000000E+00               0
GRID*                916               08.4000000000E+010.0000000000E+00+
*       0.0000000000E+00               0
GRID*                917               08.3000000000E+010.0000000000E+00+
*       0.0000000000E+00               0
GRID*                918               08.2000000000E+010.0000000000E+00+
*       0.0000000000E+00               0
GRID*                919               08.1000000000E+010.0000000000E+00+
*       0.0000000000E+00               0
GRID*                920               08.0000000000E+010.0000000000E+00+
*       0.0000000000E+00               0
GRID*                921               07.9000000000E+010.0000000000E+00+
*       0.0000000000E+00               0
GRID*                922               07.8000000000E+010.0000000000E+00+
*       0.0000000000E+00               0
GRID*                923               07.7000000000E+010.0000000000E+00+
*       0.0000000000E+00               0
GRID*                924               07.6000000000E+010.0000000000E+00+
*       0.0000000000E+00               0
GRID*                925               07.5000000000E+010.0000000000E+00+
*       0.0000000000E+00               0
GRID*                926               07.4000000000E+010.0000000000E+00+
*       0.0000000000E+00               0
GRID*                927               07.3000000000E+010.0000000000E+00+
*       0.0000000000E+00               0
GRID*                928               07.2000000000E+010.0000000000E+00+
*       0.0000000000E+00               0
GRID*                929               07.1000000000E+010.0000000000E+00+
*       0.0000000000E+00               0
GRID*                930               07.0000000000E+010.0000000000E+00+
*       0.0000000000E+00               0
GRID*                931               06.9000000000E+010.0000000000E+00+
*       0.0000000000E+00               0
GRID*                932               06.8000000000E+010.0000000000E+00+
*       0.0000000000E+00               0
GRID*                933               06.7000000000E+010.0000000000E+00+
*       0.0000000000E+00               0
GRID*                934               06.6000000000E+010.0000000000E+00+
*       0.0000000000E+00               0
GRID*                935               06.5000000000E+010.0000000000E+00+
*       0.0000000000E+00               0
GRID*                936               06.4000000000E+010.0000000000E+00+
*       0.0000000000E+00               0
GRID*                937               06.3000000000E+010.0000000000E+00+
*       0.0000000000E+00               0
GRID*                938               06.2000000000E+010.0000000000E+00+
*       0.0000000000E+00               0
GRID*                939               06.1000000000E+010.0000000000E+00+
*       0.0000000000E+00               0
GRID*                940               06.0000000000E+010.0000000000E+00+
*       0.0000000000E+00               0
GRID*                941               05.9000000000E+010.0000000000E+00+
*       0.0000000000E+00               0
GRID*                942               05.8000000000E+010.0000000000E+00+
*       0.0000000000E+00               0
GRID*                943               05.7000000000E+010.0000000000E+00+
*       0.0000000000E+00               0
GRID*                944               05.6000000000E+010.0000000000E+00+
*       0.0000000000E+00               0
GRID*                945               05.5000000000E+010.0000000000E+00+
*       0.0000000000E+00               0
GRID*                946               05.4000000000E+010.0000000000E+00+
*       0.0000000000E+00               0
GRID*                947               05.3000000000E+010.0000000000E+00+
*       0.0000000000E+00               0
GRID*                948               05.2000000000E+010.0000000000E+00+
*       0.0000000000E+00               0
GRID*                949               05.1000000000E+010.0000000000E+00+
*       0.0000000000E+00               0
GRID*                950               05.0000000000E+010.0000000000E+00+
*       0.0000000000E+00               0
GRID*                951               04.9000000000E+010.0000000000E+00+
*       0.0000000000E+00               0
GRID*                952               04.8000000000E+010.0000000000E+00+
*       0.0000000000E+00               0
GRID*                953               04.7000000000E+010.0000000000E+00+
*       0.0000000000E+00               0
GRID*                954               04.6000000000E+010.0000000000E+00+
*       0.0000000000E+00               0
GRID*                955               04.5000000000E+010.0000000000E+00+
*       0.0000000000E+00               0
GRID*                956               04.4000000000E+010.0000000000E+00+
*       0.0000000000E+00               0
GRID*                957               04.3000000000E+010.0000000000E+00+
*       0.0000000000E+00               0
GRID*                958               04.2000000000E+010.0000000000E+00+
*       0.0000000000E+00               0
GRID*                959               04.1000000000E+010.0000000000E+00+
*       0.0000000000E+00               0
GRID*                960               04.0000000000E+010.0000000000E+00+
*       0.0000000000E+00               0
GRID*                961               03.9000000000E+010.0000000000E+00+
*       0.0000000000E+00               0
GRID*                962               03.8000000000E+010.0000000000E+00+
*       0.0000000000E+00               0
GRID*                963               03.7000000000E+010.0000000000E+00+
*       0.0000000000E+00               0
GRID*                964               03.6000000000E+010.0000000000E+00+
*       0.0000000000E+00               0
GRID*                965               03.5000000000E+010.0000000000E+00+
*       0.0000000000E+00               0
GRID*                966               03.4000000000E+010.0000000000E+00+
*       0.0000000000E+00               0
GRID*                967               03.3000000000E+010.0000000000E+00+
*       0.0000000000E+00               0
GRID*                968               03.2000000000E+010.0000000000E+00+
*       0.0000000000E+00               0
GRID*                969               03.1000000000E+010.0000000000E+00+
*       0.0000000000E+00               0
GRID*                970               03.0000000000E+010.0000000000E+00+
*       0.0000000000E+00               0
GRID*                971               02.9000000000E+010.0000000000E+00+
*       0.0000000000E+00               0
GRID*                972               02.8000000000E+010.0000000000E+00+
*       0.0000000000E+00               0
GRID*                973               02.7000000000E+010.0000000000E+00+
*       0.0000000000E+00               0
GRID*                974               02.6000000000E+010.0000000000E+00+
*       0.0000000000E+00               0
GRID*                975               02.5000000000E+010.0000000000E+00+
*       0.0000000000E+00               0
GRID*                976               02.4000000000E+010.0000000000E+00+
*       0.0000000000E+00               0
GRID*                977               02.3000000000E+010.0000000000E+00+
*       0.0000000000E+00               0
GRID*                978               02.2000000000E+010.0000000000E+00+
*       0.0000000000E+00               0
GRID*                979               02.1000000000E+010.0000000000E+00+
*       0.0000000000E+00               0
GRID*                980               02.0000000000E+010.0000000000E+00+
*       0.0000000000E+00               0
GRID*                981               01.9000000000E+010.0000000000E+00+
*       0.0000000000E+00               0
GRID*                982               01.8000000000E+010.0000000000E+00+
*       0.0000000000E+00               0
GRID*                983               01.7000000000E+010.0000000000E+00+
*       0.0000000000E+00               0
GRID*                984               01.6000000000E+010.0000000000E+00+
*       0.0000000000E+00               0
GRID*                985               01.5000000000E+010.0000000000E+00+
*       0.0000000000E+00               0
GRID*                986               01.4000000000E+010.0000000000E+00+
*       0.0000000000E+00               0
GRID*                987               01.3000000000E+010.0000000000E+00+
*       0.0000000000E+00               0
GRID*                988               01.2000000000E+010.0000000000E+00+
*       0.0000000000E+00               0
GRID*                989               01.1000000000E+010.0000000000E+00+
*       0.0000000000E+00               0
GRID*                990               01.0000000000E+010.0000000000E+00+
*       0.0000000000E+00               0
GRID*                991               09.0000000000E+000.0000000000E+00+
*       0.0000000000E+00               0
GRID*                992               08.0000000000E+000.0000000000E+00+
*       0.0000000000E+00               0
GRID*                993               07.0000000000E+000.0000000000E+00+
*       0.0000000000E+00               0
GRID*                994               06.0000000000E+000.0000000000E+00+
*       0.0000000000E+00               0
GRID*                995               05.0000000000E+000.0000000000E+00+
*       0.0000000000E+00               0
GRID*                996               04.0000000000E+000.0000000000E+00+
*       0.0000000000E+00               0
GRID*                997               03.0000000000E+000.0000000000E+00+
*       0.0000000000E+00               0
GRID*                998               02.0000000000E+000.0000000000E+00+
*       0.0000000000E+00               0
GRID*                999               01.0000000000E+000.0000000000E+00+
*       0.0000000000E+00               0
GRID*               1000               01.0000000000E+001.0000000000E+01+
*       0.0000000000E+00               0
GRID*               1001               02.0000000000E+001.0000000000E+01+
*       0.0000000000E+00               0
GRID*               1002               03.0000000000E+001.0000000000E+01+
*       0.0000000000E+00               0
GRID*               1003               04.0000000000E+001.0000000000E+01+
*       0.0000000000E+00               0
GRID*               1004               05.0000000000E+001.0000000000E+01+
*       0.0000000000E+00               0
GRID*               1005               06.0000000000E+001.0000000000E+01+
*       0.0000000000E+00               0
GRID*               1006               07.0000000000E+001.0000000000E+01+
*       0.0000000000E+00               0
GRID*               1007               08.0000000000E+001.0000000000E+01+
*       0.0000000000E+00               0
GRID*               1008               09.0000000000E+001.0000000000E+01+
*       0.0000000000E+00               0
GRID*               1009               01.0000000000E+011.0000000000E+01+
*       0.0000000000E+00               0
GRID*               1010               01.1000000000E+011.0000000000E+01+
*       0.0000000000E+00               0
GRID*               1011               01.2000000000E+011.0000000000E+01+
*       0.0000000000E+00               0
GRID*               1012               01.3000000000E+011.0000000000E+01+
*       0.0000000000E+00               0
GRID*               1013               01.4000000000E+011.0000000000E+01+
*       0.0000000000E+00               0
GRID*               1014               01.5000000000E+011.0000000000E+01+
*       0.0000000000E+00               0
GRID*               1015               01.6000000000E+011.0000000000E+01+
*       0.0000000000E+00               0
GRID*               1016               01.7000000000E+011.0000000000E+01+
*       0.0000000000E+00               0
GRID*               1017               01.8000000000E+011.0000000000E+01+
*       0.0000000000E+00               0
GRID*               1018               01.9000000000E+011.0000000000E+01+
*       0.0000000000E+00               0
GRID*               1019               02.0000000000E+011.0000000000E+01+
*       0.0000000000E+00               0
GRID*               1020               02.1000000000E+011.0000000000E+01+
*       0.0000000000E+00               0
GRID*               1021               02.2000000000E+011.0000000000E+01+
*       0.0000000000E+00               0
GRID*               1022               02.3000000000E+011.0000000000E+01+
*       0.0000000000E+00               0
GRID*               1023               02.4000000000E+011.0000000000E+01+
*       0.0000000000E+00               0
GRID*               1024               02.5000000000E+011.0000000000E+01+
*       0.0000000000E+00               0
GRID*               1025               02.6000000000E+011.0000000000E+01+
*       0.0000000000E+00               0
GRID*               1026               02.7000000000E+011.0000000000E+01+
*       0.0000000000E+00               0
GRID*               1027               02.8000000000E+011.0000000000E+01+
*       0.0000000000E+00               0
GRID*               1028               02.9000000000E+011.0000000000E+01+
*       0.0000000000E+00               0
GRID*               1029               03.0000000000E+011.0000000000E+01+
*       0.0000000000E+00               0
GRID*               1030               03.1000000000E+011.0000000000E+01+
*       0.0000000000E+00               0
GRID*               1031               03.2000000000E+011.0000000000E+01+
*       0.0000000000E+00               0
GRID*               1032               03.3000000000E+011.0000000000E+01+
*       0.0000000000E+00               0
GRID*               1033               03.4000000000E+011.0000000000E+01+
*       0.0000000000E+00               0
GRID*               1034               03.5000000000E+011.0000000000E+01+
*       0.0000000000E+00               0
GRID*               1035               03.6000000000E+011.0000000000E+01+
*       0.0000000000E+00               0
GRID*               1036               03.7000000000E+011.0000000000E+01+
*       0.0000000000E+00               0
GRID*               1037               03.8000000000E+011.0000000000E+01+
*       0.0000000000E+00               0
GRID*               1038               03.9000000000E+011.0000000000E+01+
*       0.0000000000E+00               0
GRID*               1039               04.0000000000E+011.0000000000E+01+
*       0.0000000000E+00               0
GRID*               1040               04.1000000000E+011.0000000000E+01+
*       0.0000000000E+00               0
GRID*               1041               04.2000000000E+011.0000000000E+01+
*       0.0000000000E+00               0
GRID*               1042               04.3000000000E+011.0000000000E+01+
*       0.0000000000E+00               0
GRID*               1043               04.4000000000E+011.0000000000E+01+
*       0.0000000000E+00               0
GRID*               1044               04.5000000000E+011.0000000000E+01+
*       0.0000000000E+00               0
GRID*               1045               04.6000000000E+011.0000000000E+01+
*       0.0000000000E+00               0
GRID*               1046               04.7000000000E+011.0000000000E+01+
*       0.0000000000E+00               0
GRID*               1047               04.8000000000E+011.0000000000E+01+
*       0.0000000000E+00               0
GRID*               1048               04.9000000000E+011.0000000000E+01+
*       0.0000000000E+00               0
GRID*               1049               05.0000000000E+011.0000000000E+01+
*       0.0000000000E+00               0
GRID*               1050               05.1000000000E+011.0000000000E+01+
*       0.0000000000E+00               0
GRID*               1051               05.2000000000E+011.0000000000E+01+
*       0.0000000000E+00               0
GRID*               1052               05.3000000000E+011.0000000000E+01+
*       0.0000000000E+00               0
GRID*               1053               05.4000000000E+011.0000000000E+01+
*       0.0000000000E+00               0
GRID*               1054               05.5000000000E+011.0000000000E+01+
*       0.0000000000E+00               0
GRID*               1055               05.6000000000E+011.0000000000E+01+
*       0.0000000000E+00               0
GRID*               1056               05.7000000000E+011.0000000000E+01+
*       0.0000000000E+00               0
GRID*               1057               05.8000000000E+011.0000000000E+01+
*       0.0000000000E+00               0
GRID*               1058               05.9000000000E+011.0000000000E+01+
*       0.0000000000E+00               0
GRID*               1059               06.0000000000E+011.0000000000E+01+
*       0.0000000000E+00               0
GRID*               1060               06.1000000000E+011.0000000000E+01+
*       0.0000000000E+00               0
GRID*               1061               06.2000000000E+011.0000000000E+01+
*       0.0000000000E+00               0
GRID*               1062               06.3000000000E+011.0000000000E+01+
*       0.0000000000E+00               0
GRID*               1063               06.4000000000E+011.0000000000E+01+
*       0.0000000000E+00               0
GRID*               1064               06.5000000000E+011.0000000000E+01+
*       0.0000000000E+00               0
GRID*               1065               06.6000000000E+011.0000000000E+01+
*       0.0000000000E+00               0
GRID*               1066               06.7000000000E+011.0000000000E+01+
*       0.0000000000E+00               0
GRID*               1067               06.8000000000E+011.0000000000E+01+
*       0.0000000000E+00               0
GRID*               1068               06.9000000000E+011.0000000000E+01+
*       0.0000000000E+00               0
GRID*               1069               07.0000000000E+011.0000000000E+01+
*       0.0000000000E+00               0
GRID*               1070               07.1000000000E+011.0000000000E+01+
*       0.0000000000E+00               0
GRID*               1071               07.2000000000E+011.0000000000E+01+
*       0.0000000000E+00               0
GRID*               1072               07.3000000000E+011.0000000000E+01+
*       0.0000000000E+00               0
GRID*               1073               07.4000000000E+011.0000000000E+01+
*       0.0000000000E+00               0
GRID*               1074               07.5000000000E+011.0000000000E+01+
*       0.0000000000E+00               0
GRID*               1075               07.6000000000E+011.0000000000E+01+
*       0.0000000000E+00               0
GRID*               1076               07.7000000000E+011.0000000000E+01+
*       0.0000000000E+00               0
GRID*               1077               07.8000000000E+011.0000000000E+01+
*       0.0000000000E+00               0
GRID*               1078               07.9000000000E+011.0000000000E+01+
*       0.0000000000E+00               0
GRID*               1079               08.0000000000E+011.0000000000E+01+
*       0.0000000000E+00               0
GRID*               1080               08.1000000000E+011.0000000000E+01+
*       0.0000000000E+00               0
GRID*               1081               08.2000000000E+011.0000000000E+01+
*       0.0000000000E+00               0
GRID*               1082               08.3000000000E+011.0000000000E+01+
*       0.0000000000E+00               0
GRID*               1083               08.4000000000E+011.0000000000E+01+
*       0.0000000000E+00               0
GRID*               1084               08.5000000000E+011.0000000000E+01+
*       0.0000000000E+00               0
GRID*               1085               08.6000000000E+011.0000000000E+01+
*       0.0000000000E+00               0
GRID*               1086               08.7000000000E+011.0000000000E+01+
*       0.0000000000E+00               0
GRID*               1087               08.8000000000E+011.0000000000E+01+
*       0.0000000000E+00               0
GRID*               1088               08.9000000000E+011.0000000000E+01+
*       0.0000000000E+00               0
GRID*               1089               09.0000000000E+011.0000000000E+01+
*       0.0000000000E+00               0
GRID*               1090               09.1000000000E+011.0000000000E+01+
*       0.0000000000E+00               0
GRID*               1091               09.2000000000E+011.0000000000E+01+
*       0.0000000000E+00               0
GRID*               1092               09.3000000000E+011.0000000000E+01+
*       0.0000000000E+00               0
GRID*               1093               09.4000000000E+011.0000000000E+01+
*       0.0000000000E+00               0
GRID*               1094               09.5000000000E+011.0000000000E+01+
*       0.0000000000E+00               0
GRID*               1095               09.6000000000E+011.0000000000E+01+
*       0.0000000000E+00               0
GRID*               1096               09.7000000000E+011.0000000000E+01+
*       0.0000000000E+00               0
GRID*               1097               09.8000000000E+011.0000000000E+01+
*       0.0000000000E+00               0
GRID*               1098               09.9000000000E+011.0000000000E+01+
*       0.0000000000E+00               0
GRID*               1099               01.0000000000E+029.0000000000E+00+
*       0.0000000000E+00               0
GRID*               1100               01.0000000000E+028.0000000000E+00+
*       0.0000000000E+00               0
GRID*               1101               01.0000000000E+027.0000000000E+00+
*       0.0000000000E+00               0
GRID*               1102               01.0000000000E+026.0000000000E+00+
*       0.0000000000E+00               0
GRID*               1103               01.0000000000E+025.0000000000E+00+
*       0.0000000000E+00               0
GRID*               1104               01.0000000000E+024.0000000000E+00+
*       0.0000000000E+00               0
GRID*               1105               01.0000000000E+023.0000000000E+00+
*       0.0000000000E+00               0
GRID*               1106               01.0000000000E+022.0000000000E+00+
*       0.0000000000E+00               0
GRID*               1107               01.0000000000E+021.0000000000E+00+
*       0.0000000000E+00               0
GRID*                  1               01.0000000000E+001.0000000000E+00+
*       0.0000000000E+00               0
GRID*                  2               02.0000000000E+001.0000000000E+00+
*       0.0000000000E+00               0
GRID*                  3               03.0000000000E+001.0000000000E+00+
*       0.0000000000E+00               0
GRID*                  4               04.0000000000E+001.0000000000E+00+
*       0.0000000000E+00               0
GRID*                  5               05.0000000000E+001.0000000000E+00+
*       0.0000000000E+00               0
GRID*                  6               06.0000000000E+001.0000000000E+00+
*       0.0000000000E+00               0
GRID*                  7               07.0000000000E+001.0000000000E+00+
*       0.0000000000E+00               0
GRID*                  8               08.0000000000E+001.0000000000E+00+
*       0.0000000000E+00               0
GRID*                  9               09.0000000000E+001.0000000000E+00+
*       0.0000000000E+00               0
GRID*                 10               01.0000000000E+011.0000000000E+00+
*       0.0000000000E+00               0
GRID*                 11               01.1000000000E+011.0000000000E+00+
*       0.0000000000E+00               0
GRID*                 12               01.2000000000E+011.0000000000E+00+
*       0.0000000000E+00               0
GRID*                 13               01.3000000000E+011.0000000000E+00+
*       0.0000000000E+00               0
GRID*                 14               01.4000000000E+011.0000000000E+00+
*       0.0000000000E+00               0
GRID*                 15               01.5000000000E+011.0000000000E+00+
*       0.0000000000E+00               0
GRID*                 16               01.6000000000E+011.0000000000E+00+
*       0.0000000000E+00               0
GRID*                 17               01.7000000000E+011.0000000000E+00+
*       0.0000000000E+00               0
GRID*                 18               01.8000000000E+011.0000000000E+00+
*       0.0000000000E+00               0
GRID*                 19               01.9000000000E+011.0000000000E+00+
*       0.0000000000E+00               0
GRID*                 20               02.0000000000E+011.0000000000E+00+
*       0.0000000000E+00               0
GRID*                 21               02.1000000000E+011.0000000000E+00+
*       0.0000000000E+00               0
GRID*                 22               02.2000000000E+011.0000000000E+00+
*       0.0000000000E+00               0
GRID*                 23               02.3000000000E+011.0000000000E+00+
*       0.0000000000E+00               0
GRID*                 24               02.4000000000E+011.0000000000E+00+
*       0.0000000000E+00               0
GRID*                 25               02.5000000000E+011.0000000000E+00+
*       0.0000000000E+00               0
GRID*                 26               02.6000000000E+011.0000000000E+00+
*       0.0000000000E+00               0
GRID*                 27               02.7000000000E+011.0000000000E+00+
*       0.0000000000E+00               0
GRID*                 28               02.8000000000E+011.0000000000E+00+
*       0.0000000000E+00               0
GRID*                 29               02.9000000000E+011.0000000000E+00+
*       0.0000000000E+00               0
GRID*                 30               03.0000000000E+011.0000000000E+00+
*       0.0000000000E+00               0
GRID*                 31               03.1000000000E+011.0000000000E+00+
*       0.0000000000E+00               0
GRID*                 32               03.2000000000E+011.0000000000E+00+
*       0.0000000000E+00               0
GRID*                 33               03.3000000000E+011.0000000000E+00+
*       0.0000000000E+00               0
GRID*                 34               03.4000000000E+011.0000000000E+00+
*       0.0000000000E+00               0
GRID*                 35               03.5000000000E+011.0000000000E+00+
*       0.0000000000E+00               0
GRID*                 36               03.6000000000E+011.0000000000E+00+
*       0.0000000000E+00               0
GRID*                 37               03.7000000000E+011.0000000000E+00+
*       0.0000000000E+00               0
GRID*                 38               03.8000000000E+011.0000000000E+00+
*       0.0000000000E+00               0
GRID*                 39               03.9000000000E+011.0000000000E+00+
*       0.0000000000E+00               0
GRID*                 40               04.0000000000E+011.0000000000E+00+
*       0.0000000000E+00               0
GRID*                 41               04.1000000000E+011.0000000000E+00+
*       0.0000000000E+00               0
GRID*                 42               04.2000000000E+011.0000000000E+00+
*       0.0000000000E+00               0
GRID*                 43               04.3000000000E+011.0000000000E+00+
*       0.0000000000E+00               0
GRID*                 44               04.4000000000E+011.0000000000E+00+
*       0.0000000000E+00               0
GRID*                 45               04.5000000000E+011.0000000000E+00+
*       0.0000000000E+00               0
GRID*                 46               04.6000000000E+011.0000000000E+00+
*       0.0000000000E+00               0
GRID*                 47               04.7000000000E+011.0000000000E+00+
*       0.0000000000E+00               0
GRID*                 48               04.8000000000E+011.0000000000E+00+
*       0.0000000000E+00               0
GRID*                 49               04.9000000000E+011.0000000000E+00+
*       0.0000000000E+00               0
GRID*                 50               05.0000000000E+011.0000000000E+00+
*       0.0000000000E+00               0
GRID*                 51               05.1000000000E+011.0000000000E+00+
*       0.0000000000E+00               0
GRID*                 52               05.2000000000E+011.0000000000E+00+
*       0.0000000000E+00               0
GRID*                 53               05.3000000000E+011.0000000000E+00+
*       0.0000000000E+00               0
GRID*                 54               05.4000000000E+011.0000000000E+00+
*       0.0000000000E+00               0
GRID*                 55               05.5000000000E+011.0000000000E+00+
*       0.0000000000E+00               0
GRID*                 56               05.6000000000E+011.0000000000E+00+
*       0.0000000000E+00               0
GRID*                 57               05.7000000000E+011.0000000000E+00+
*       0.0000000000E+00               0
GRID*                 58               05.8000000000E+011.0000000000E+00+
*       0.0000000000E+00               0
GRID*                 59               05.9000000000E+011.0000000000E+00+
*       0.0000000000E+00               0
GRID*                 60               06.0000000000E+011.0000000000E+00+
*       0.0000000000E+00               0
GRID*                 61               06.1000000000E+011.0000000000E+00+
*       0.0000000000E+00               0
GRID*                 62               06.2000000000E+011.0000000000E+00+
*       0.0000000000E+00               0
GRID*                 63               06.3000000000E+011.0000000000E+00+
*       0.0000000000E+00               0
GRID*                 64               06.4000000000E+011.0000000000E+00+
*       0.0000000000E+00               0
GRID*                 65               06.5000000000E+011.0000000000E+00+
*       0.0000000000E+00               0
GRID*                 66               06.6000000000E+011.0000000000E+00+
*       0.0000000000E+00               0
GRID*                 67               06.7000000000E+011.0000000000E+00+
*       0.0000000000E+00               0
GRID*                 68               06.8000000000E+011.0000000000E+00+
*       0.0000000000E+00               0
GRID*                 69               06.9000000000E+011.0000000000E+00+
*       0.0000000000E+00               0
GRID*                 70               07.0000000000E+011.0000000000E+00+
*       0.0000000000E+00               0
GRID*                 71               07.1000000000E+011.0000000000E+00+
*       0.0000000000E+00               0
GRID*                 72               07.2000000000E+011.0000000000E+00+
*       0.0000000000E+00               0
GRID*                 73               07.3000000000E+011.0000000000E+00+
*       0.0000000000E+00               0
GRID*                 74               07.4000000000E+011.0000000000E+00+
*       0.0000000000E+00               0
GRID*                 75               07.5000000000E+011.0000000000E+00+
*       0.0000000000E+00               0
GRID*                 76               07.6000000000E+011.0000000000E+00+
*       0.0000000000E+00               0
GRID*                 77               07.7000000000E+011.0000000000E+00+
*       0.0000000000E+00               0
GRID*                 78               07.8000000000E+011.0000000000E+00+
*       0.0000000000E+00               0
GRID*                 79               07.9000000000E+011.0000000000E+00+
*       0.0000000000E+00               0
GRID*                 80               08.0000000000E+011.0000000000E+00+
*       0.0000000000E+00               0
GRID*                 81               08.1000000000E+011.0000000000E+00+
*       0.0000000000E+00               0
GRID*                 82               08.2000000000E+011.0000000000E+00+
*       0.0000000000E+00               0
GRID*                 83               08.3000000000E+011.0000000000E+00+
*       0.0000000000E+00               0
GRID*                 84               08.4000000000E+011.0000000000E+00+
*       0.0000000000E+00               0
GRID*                 85               08.5000000000E+011.0000000000E+00+
*       0.0000000000E+00               0
GRID*                 86               08.6000000000E+011.0000000000E+00+
*       0.0000000000E+00               0
GRID*                 87               08.7000000000E+011.0000000000E+00+
*       0.0000000000E+00               0
GRID*                 88               08.8000000000E+011.0000000000E+00+
*       0.0000000000E+00               0
GRID*                 89               08.9000000000E+011.0000000000E+00+
*       0.0000000000E+00               0
GRID*                 90               09.0000000000E+011.0000000000E+00+
*       0.0000000000E+00               0
GRID*                 91               09.1000000000E+011.0000000000E+00+
*       0.0000000000E+00               0
GRID*                 92               09.2000000000E+011.0000000000E+00+
*       0.0000000000E+00               0
GRID*                 93               09.3000000000E+011.0000000000E+00+
*       0.0000000000E+00               0
GRID*                 94               09.4000000000E+011.0000000000E+00+
*       0.0000000000E+00               0
GRID*                 95               09.5000000000E+011.0000000000E+00+
*       0.0000000000E+00               0
GRID*                 96               09.6000000000E+011.0000000000E+00+
*       0.0000000000E+00               0
GRID*                 97               09.7000000000E+011.0000000000E+00+
*       0.0000000000E+00               0
GRID*                 98               09.8000000000E+011.0000000000E+00+
*       0.0000000000E+00               0
GRID*                 99               09.9000000000E+011.0000000000E+00+
*       0.0000000000E+00               0
GRID*                100               01.0000000000E+002.0000000000E+00+
*       0.0000000000E+00               0
GRID*                101               02.0000000000E+002.0000000000E+00+
*       0.0000000000E+00               0
GRID*                102               03.0000000000E+002.0000000000E+00+
*       0.0000000000E+00               0
GRID*                103               04.0000000000E+002.0000000000E+00+
*       0.0000000000E+00               0
GRID*                104               05.0000000000E+002.0000000000E+00+
*       0.0000000000E+00               0
GRID*                105               06.0000000000E+002.0000000000E+00+
*       0.0000000000E+00               0
GRID*                106               07.0000000000E+002.0000000000E+00+
*       0.0000000000E+00               0
GRID*                107               08.0000000000E+002.0000000000E+00+
*       0.0000000000E+00               0
GRID*                108               09.0000000000E+002.0000000000E+00+
*       0.0000000000E+00               0
GRID*                109               01.0000000000E+012.0000000000E+00+
*       0.0000000000E+00               0
GRID*                110               01.1000000000E+012.0000000000E+00+
*       0.0000000000E+00               0
GRID*                111               01.2000000000E+012.0000000000E+00+
*       0.0000000000E+00               0
GRID*                112               01.3000000000E+012.0000000000E+00+
*       0.0000000000E+00               0
GRID*                113               01.4000000000E+012.0000000000E+00+
*       0.0000000000E+00               0
GRID*                114               01.5000000000E+012.0000000000E+00+
*       0.0000000000E+00               0
GRID*                115               01.6000000000E+012.0000000000E+00+
*       0.0000000000E+00               0
GRID*                116               01.7000000000E+012.0000000000E+00+
*       0.0000000000E+00               0
GRID*                117               01.8000000000E+012.0000000000E+00+
*       0.0000000000E+00               0
GRID*                118               01.9000000000E+012.0000000000E+00+
*       0.0000000000E+00               0
GRID*                119               02.0000000000E+012.0000000000E+00+
*       0.0000000000E+00               0
GRID*                120               02.1000000000E+012.0000000000E+00+
*       0.0000000000E+00               0
GRID*                121               02.2000000000E+012.0000000000E+00+
*       0.0000000000E+00               0
GRID*                122               02.3000000000E+012.0000000000E+00+
*       0.0000000000E+00               0
GRID*                123               02.4000000000E+012.0000000000E+00+
*       0.0000000000E+00               0
GRID*                124               02.5000000000E+012.0000000000E+00+
*       0.0000000000E+00               0
GRID*                125               02.6000000000E+012.0000000000E+00+
*       0.0000000000E+00               0
GRID*                126               02.7000000000E+012.0000000000E+00+
*       0.0000000000E+00               0
GRID*                127               02.8000000000E+012.0000000000E+00+
*       0.0000000000E+00               0
GRID*                128               02.9000000000E+012.0000000000E+00+
*       0.0000000000E+00               0
GRID*                129               03.0000000000E+012.0000000000E+00+
*       0.0000000000E+00               0
GRID*                130               03.1000000000E+012.0000000000E+00+
*       0.0000000000E+00               0
GRID*                131               03.2000000000E+012.0000000000E+00+
*       0.0000000000E+00               0
GRID*                132               03.3000000000E+012.0000000000E+00+
*       0.0000000000E+00               0
GRID*                133               03.4000000000E+012.0000000000E+00+
*       0.0000000000E+00               0
GRID*                134               03.5000000000E+012.0000000000E+00+
*       0.0000000000E+00               0
GRID*                135               03.6000000000E+012.0000000000E+00+
*       0.0000000000E+00               0
GRID*                136               03.7000000000E+012.0000000000E+00+
*       0.0000000000E+00               0
GRID*                137               03.8000000000E+012.0000000000E+00+
*       0.0000000000E+00               0
GRID*                138               03.9000000000E+012.0000000000E+00+
*       0.0000000000E+00               0
GRID*                139               04.0000000000E+012.0000000000E+00+
*       0.0000000000E+00               0
GRID*                140               04.1000000000E+012.0000000000E+00+
*       0.0000000000E+00               0
GRID*                141               04.2000000000E+012.0000000000E+00+
*       0.0000000000E+00               0
GRID*                142               04.3000000000E+012.0000000000E+00+
*       0.0000000000E+00               0
GRID*                143               04.4000000000E+012.0000000000E+00+
*       0.0000000000E+00               0
GRID*                144               04.5000000000E+012.0000000000E+00+
*       0.0000000000E+00               0
GRID*                145               04.6000000000E+012.0000000000E+00+
*       0.0000000000E+00               0
GRID*                146               04.7000000000E+012.0000000000E+00+
*       0.0000000000E+00               0
GRID*                147               04.8000000000E+012.0000000000E+00+
*       0.0000000000E+00               0
GRID*                148               04.9000000000E+012.0000000000E+00+
*       0.0000000000E+00               0
GRID*                149               05.0000000000E+012.0000000000E+00+
*       0.0000000000E+00               0
GRID*                150               05.1000000000E+012.0000000000E+00+
*       0.0000000000E+00               0
GRID*                151               05.2000000000E+012.0000000000E+00+
*       0.0000000000E+00               0
GRID*                152               05.3000000000E+012.0000000000E+00+
*       0.0000000000E+00               0
GRID*                153               05.4000000000E+012.0000000000E+00+
*       0.0000000000E+00               0
GRID*                154               05.5000000000E+012.0000000000E+00+
*       0.0000000000E+00               0
GRID*                155               05.6000000000E+012.0000000000E+00+
*       0.0000000000E+00               0
GRID*                156               05.7000000000E+012.0000000000E+00+
*       0.0000000000E+00               0
GRID*                157               05.8000000000E+012.0000000000E+00+
*       0.0000000000E+00               0
GRID*                158               05.9000000000E+012.0000000000E+00+
*       0.0000000000E+00               0
GRID*                159               06.0000000000E+012.0000000000E+00+
*       0.0000000000E+00               0
GRID*                160               06.1000000000E+012.0000000000E+00+
*       0.0000000000E+00               0
GRID*                161               06.2000000000E+012.0000000000E+00+
*       0.0000000000E+00               0
GRID*                162               06.3000000000E+012.0000000000E+00+
*       0.0000000000E+00               0
GRID*                163               06.4000000000E+012.0000000000E+00+
*       0.0000000000E+00               0
GRID*                164               06.5000000000E+012.0000000000E+00+
*       0.0000000000E+00               0
GRID*                165               06.6000000000E+012.0000000000E+00+
*       0.0000000000E+00               0
GRID*                166               06.7000000000E+012.0000000000E+00+
*       0.0000000000E+00               0
GRID*                167               06.8000000000E+012.0000000000E+00+
*       0.0000000000E+00               0
GRID*                168               06.9000000000E+012.0000000000E+00+
*       0.0000000000E+00               0
GRID*                169               07.0000000000E+012.0000000000E+00+
*       0.0000000000E+00               0
GRID*                170               07.1000000000E+012.0000000000E+00+
*       0.0000000000E+00               0
GRID*                171               07.2000000000E+012.0000000000E+00+
*       0.0000000000E+00               0
GRID*                172               07.3000000000E+012.0000000000E+00+
*       0.0000000000E+00               0
GRID*                173               07.4000000000E+012.0000000000E+00+
*       0.0000000000E+00               0
GRID*                174               07.5000000000E+012.0000000000E+00+
*       0.0000000000E+00               0
GRID*                175               07.6000000000E+012.0000000000E+00+
*       0.0000000000E+00               0
GRID*                176               07.7000000000E+012.0000000000E+00+
*       0.0000000000E+00               0
GRID*                177               07.8000000000E+012.0000000000E+00+
*       0.0000000000E+00               0
GRID*                178               07.9000000000E+012.0000000000E+00+
*       0.0000000000E+00               0
GRID*                179               08.0000000000E+012.0000000000E+00+
*       0.0000000000E+00               0
GRID*                180               08.1000000000E+012.0000000000E+00+
*       0.0000000000E+00               0
GRID*                181               08.2000000000E+012.0000000000E+00+
*       0.0000000000E+00               0
GRID*                182               08.3000000000E+012.0000000000E+00+
*       0.0000000000E+00               0
GRID*                183               08.4000000000E+012.0000000000E+00+
*       0.0000000000E+00               0
GRID*                184               08.5000000000E+012.0000000000E+00+
*       0.0000000000E+00               0
GRID*                185               08.6000000000E+012.0000000000E+00+
*       0.0000000000E+00               0
GRID*                186               08.7000000000E+012.0000000000E+00+
*       0.0000000000E+00               0
GRID*                187               08.8000000000E+012.0000000000E+00+
*       0.0000000000E+00               0
GRID*                188               08.9000000000E+012.0000000000E+00+
*       0.0000000000E+00               0
GRID*                189               09.0000000000E+012.0000000000E+00+
*       0.0000000000E+00               0
GRID*                190               09.1000000000E+012.0000000000E+00+
*       0.0000000000E+00               0
GRID*                191               09.2000000000E+012.0000000000E+00+
*       0.0000000000E+00               0
GRID*                192               09.3000000000E+012.0000000000E+00+
*       0.0000000000E+00               0
GRID*                193               09.4000000000E+012.0000000000E+00+
*       0.0000000000E+00               0
GRID*                194               09.5000000000E+012.0000000000E+00+
*       0.0000000000E+00               0
GRID*                195               09.6000000000E+012.0000000000E+00+
*       0.0000000000E+00               0
GRID*                196               09.7000000000E+012.0000000000E+00+
*       0.0000000000E+00               0
GRID*                197               09.8000000000E+012.0000000000E+00+
*       0.0000000000E+00               0
GRID*                198               09.9000000000E+012.0000000000E+00+
*       0.0000000000E+00               0
GRID*                199               01.0000000000E+003.0000000000E+00+
*       0.0000000000E+00               0
GRID*                200               02.0000000000E+003.0000000000E+00+
*       0.0000000000E+00               0
GRID*                201               03.0000000000E+003.0000000000E+00+
*       0.0000000000E+00               0
GRID*                202               04.0000000000E+003.0000000000E+00+
*       0.0000000000E+00               0
GRID*                203               05.0000000000E+003.0000000000E+00+
*       0.0000000000E+00               0
GRID*                204               06.0000000000E+003.0000000000E+00+
*       0.0000000000E+00               0
GRID*                205               07.0000000000E+003.0000000000E+00+
*       0.0000000000E+00               0
GRID*                206               08.0000000000E+003.0000000000E+00+
*       0.0000000000E+00               0
GRID*                207               09.0000000000E+003.0000000000E+00+
*       0.0000000000E+00               0
GRID*                208               01.0000000000E+013.0000000000E+00+
*       0.0000000000E+00               0
GRID*                209               01.1000000000E+013.0000000000E+00+
*       0.0000000000E+00               0
GRID*                210               01.2000000000E+013.0000000000E+00+
*       0.0000000000E+00               0
GRID*                211               01.3000000000E+013.0000000000E+00+
*       0.0000000000E+00               0
GRID*                212               01.4000000000E+013.0000000000E+00+
*       0.0000000000E+00               0
GRID*                213               01.5000000000E+013.0000000000E+00+
*       0.0000000000E+00               0
GRID*                214               01.6000000000E+013.0000000000E+00+
*       0.0000000000E+00               0
GRID*                215               01.7000000000E+013.0000000000E+00+
*       0.0000000000E+00               0
GRID*                216               01.8000000000E+013.0000000000E+00+
*       0.0000000000E+00               0
GRID*                217               01.9000000000E+013.0000000000E+00+
*       0.0000000000E+00               0
GRID*                218               02.0000000000E+013.0000000000E+00+
*       0.0000000000E+00               0
GRID*                219               02.1000000000E+013.0000000000E+00+
*       0.0000000000E+00               0
GRID*                220               02.2000000000E+013.0000000000E+00+
*       0.0000000000E+00               0
GRID*                221               02.3000000000E+013.0000000000E+00+
*       0.0000000000E+00               0
GRID*                222               02.4000000000E+013.0000000000E+00+
*       0.0000000000E+00               0
GRID*                223               02.5000000000E+013.0000000000E+00+
*       0.0000000000E+00               0
GRID*                224               02.6000000000E+013.0000000000E+00+
*       0.0000000000E+00               0
GRID*                225               02.7000000000E+013.0000000000E+00+
*       0.0000000000E+00               0
GRID*                226               02.8000000000E+013.0000000000E+00+
*       0.0000000000E+00               0
GRID*                227               02.9000000000E+013.0000000000E+00+
*       0.0000000000E+00               0
GRID*                228               03.0000000000E+013.0000000000E+00+
*       0.0000000000E+00               0
GRID*                229               03.1000000000E+013.0000000000E+00+
*       0.0000000000E+00               0
GRID*                230               03.2000000000E+013.0000000000E+00+
*       0.0000000000E+00               0
GRID*                231               03.3000000000E+013.0000000000E+00+
*       0.0000000000E+00               0
GRID*                232               03.4000000000E+013.0000000000E+00+
*       0.0000000000E+00               0
GRID*                233               03.5000000000E+013.0000000000E+00+
*       0.0000000000E+00               0
GRID*                234               03.6000000000E+013.0000000000E+00+
*       0.0000000000E+00               0
GRID*                235               03.7000000000E+013.0000000000E+00+
*       0.0000000000E+00               0
GRID*                236               03.8000000000E+013.0000000000E+00+
*       0.0000000000E+00               0
GRID*                237               03.9000000000E+013.0000000000E+00+
*       0.0000000000E+00               0
GRID*                238               04.0000000000E+013.0000000000E+00+
*       0.0000000000E+00               0
GRID*                239               04.1000000000E+013.0000000000E+00+
*       0.0000000000E+00               0
GRID*                240               04.2000000000E+013.0000000000E+00+
*       0.0000000000E+00               0
GRID*                241               04.3000000000E+013.0000000000E+00+
*       0.0000000000E+00               0
GRID*                242               04.4000000000E+013.0000000000E+00+
*       0.0000000000E+00               0
GRID*                243               04.5000000000E+013.0000000000E+00+
*       0.0000000000E+00               0
GRID*                244               04.6000000000E+013.0000000000E+00+
*       0.0000000000E+00               0
GRID*                245               04.7000000000E+013.0000000000E+00+
*       0.0000000000E+00               0
GRID*                246               04.8000000000E+013.0000000000E+00+
*       0.0000000000E+00               0
GRID*                247               04.9000000000E+013.0000000000E+00+
*       0.0000000000E+00               0
GRID*                248               05.0000000000E+013.0000000000E+00+
*       0.0000000000E+00               0
GRID*                249               05.1000000000E+013.0000000000E+00+
*       0.0000000000E+00               0
GRID*                250               05.2000000000E+013.0000000000E+00+
*       0.0000000000E+00               0
GRID*                251               05.3000000000E+013.0000000000E+00+
*       0.0000000000E+00               0
GRID*                252               05.4000000000E+013.0000000000E+00+
*       0.0000000000E+00               0
GRID*                253               05.5000000000E+013.0000000000E+00+
*       0.0000000000E+00               0
GRID*                254               05.6000000000E+013.0000000000E+00+
*       0.0000000000E+00               0
GRID*                255               05.7000000000E+013.0000000000E+00+
*       0.0000000000E+00               0
GRID*                256               05.8000000000E+013.0000000000E+00+
*       0.0000000000E+00               0
GRID*                257               05.9000000000E+013.0000000000E+00+
*       0.0000000000E+00               0
GRID*                258               06.0000000000E+013.0000000000E+00+
*       0.0000000000E+00               0
GRID*                259               06.1000000000E+013.0000000000E+00+
*       0.0000000000E+00               0
GRID*                260               06.2000000000E+013.0000000000E+00+
*       0.0000000000E+00               0
GRID*                261               06.3000000000E+013.0000000000E+00+
*       0.0000000000E+00               0
GRID*                262               06.4000000000E+013.0000000000E+00+
*       0.0000000000E+00               0
GRID*                263               06.5000000000E+013.0000000000E+00+
*       0.0000000000E+00               0
GRID*                264               06.6000000000E+013.0000000000E+00+
*       0.0000000000E+00               0
GRID*                265               06.7000000000E+013.0000000000E+00+
*       0.0000000000E+00               0
GRID*                266               06.8000000000E+013.0000000000E+00+
*       0.0000000000E+00               0
GRID*                267               06.9000000000E+013.0000000000E+00+
*       0.0000000000E+00               0
GRID*                268               07.0000000000E+013.0000000000E+00+
*       0.0000000000E+00               0
GRID*                269               07.1000000000E+013.0000000000E+00+
*       0.0000000000E+00               0
GRID*                270               07.2000000000E+013.0000000000E+00+
*       0.0000000000E+00               0
GRID*                271               07.3000000000E+013.0000000000E+00+
*       0.0000000000E+00               0
GRID*                272               07.4000000000E+013.0000000000E+00+
*       0.0000000000E+00               0
GRID*                273               07.5000000000E+013.0000000000E+00+
*       0.0000000000E+00               0
GRID*                274               07.6000000000E+013.0000000000E+00+
*       0.0000000000E+00               0
GRID*                275               07.7000000000E+013.0000000000E+00+
*       0.0000000000E+00               0
GRID*                276               07.8000000000E+013.0000000000E+00+
*       0.0000000000E+00               0
GRID*                277               07.9000000000E+013.0000000000E+00+
*       0.0000000000E+00               0
GRID*                278               08.0000000000E+013.0000000000E+00+
*       0.0000000000E+00               0
GRID*                279               08.1000000000E+013.0000000000E+00+
*       0.0000000000E+00               0
GRID*                280               08.2000000000E+013.0000000000E+00+
*       0.0000000000E+00               0
GRID*                281               08.3000000000E+013.0000000000E+00+
*       0.0000000000E+00               0
GRID*                282               08.4000000000E+013.0000000000E+00+
*       0.0000000000E+00               0
GRID*                283               08.5000000000E+013.0000000000E+00+
*       0.0000000000E+00               0
GRID*                284               08.6000000000E+013.0000000000E+00+
*       0.0000000000E+00               0
GRID*                285               08.7000000000E+013.0000000000E+00+
*       0.0000000000E+00               0
GRID*                286               08.8000000000E+013.0000000000E+00+
*       0.0000000000E+00               0
GRID*                287               08.9000000000E+013.0000000000E+00+
*       0.0000000000E+00               0
GRID*                288               09.0000000000E+013.0000000000E+00+
*       0.0000000000E+00               0
GRID*                289               09.1000000000E+013.0000000000E+00+
*       0.0000000000E+00               0
GRID*                290               09.2000000000E+013.0000000000E+00+
*       0.0000000000E+00               0
GRID*                291               09.3000000000E+013.0000000000E+00+
*       0.0000000000E+00               0
GRID*                292               09.4000000000E+013.0000000000E+00+
*       0.0000000000E+00               0
GRID*                293               09.5000000000E+013.0000000000E+00+
*       0.0000000000E+00               0
GRID*                294               09.6000000000E+013.0000000000E+00+
*       0.0000000000E+00               0
GRID*                295               09.7000000000E+013.0000000000E+00+
*       0.0000000000E+00               0
GRID*                296               09.8000000000E+013.0000000000E+00+
*       0.0000000000E+00               0
GRID*                297               09.9000000000E+013.0000000000E+00+
*       0.0000000000E+00               0
GRID*                298               01.0000000000E+004.0000000000E+00+
*       0.0000000000E+00               0
GRID*                299               02.0000000000E+004.0000000000E+00+
*       0.0000000000E+00               0
GRID*                300               03.0000000000E+004.0000000000E+00+
*       0.0000000000E+00               0
GRID*                301               04.0000000000E+004.0000000000E+00+
*       0.0000000000E+00               0
GRID*                302               05.0000000000E+004.0000000000E+00+
*       0.0000000000E+00               0
GRID*                303               06.0000000000E+004.0000000000E+00+
*       0.0000000000E+00               0
GRID*                304               07.0000000000E+004.0000000000E+00+
*       0.0000000000E+00               0
GRID*                305               08.0000000000E+004.0000000000E+00+
*       0.0000000000E+00               0
GRID*                306               09.0000000000E+004.0000000000E+00+
*       0.0000000000E+00               0
GRID*                307               01.0000000000E+014.0000000000E+00+
*       0.0000000000E+00               0
GRID*                308               01.1000000000E+014.0000000000E+00+
*       0.0000000000E+00               0
GRID*                309               01.2000000000E+014.0000000000E+00+
*       0.0000000000E+00               0
GRID*                310               01.3000000000E+014.0000000000E+00+
*       0.0000000000E+00               0
GRID*                311               01.4000000000E+014.0000000000E+00+
*       0.0000000000E+00               0
GRID*                312               01.5000000000E+014.0000000000E+00+
*       0.0000000000E+00               0
GRID*                313               01.6000000000E+014.0000000000E+00+
*       0.0000000000E+00               0
GRID*                314               01.7000000000E+014.0000000000E+00+
*       0.0000000000E+00               0
GRID*                315               01.8000000000E+014.0000000000E+00+
*       0.0000000000E+00               0
GRID*                316               01.9000000000E+014.0000000000E+00+
*       0.0000000000E+00               0
GRID*                317               02.0000000000E+014.0000000000E+00+
*       0.0000000000E+00               0
GRID*                318               02.1000000000E+014.0000000000E+00+
*       0.0000000000E+00               0
GRID*                319               02.2000000000E+014.0000000000E+00+
*       0.0000000000E+00               0
GRID*                320               02.3000000000E+014.0000000000E+00+
*       0.0000000000E+00               0
GRID*                321               02.4000000000E+014.0000000000E+00+
*       0.0000000000E+00               0
GRID*                322               02.5000000000E+014.0000000000E+00+
*       0.0000000000E+00               0
GRID*                323               02.6000000000E+014.0000000000E+00+
*       0.0000000000E+00               0
GRID*                324               02.7000000000E+014.0000000000E+00+
*       0.0000000000E+00               0
GRID*                325               02.8000000000E+014.0000000000E+00+
*       0.0000000000E+00               0
GRID*                326               02.9000000000E+014.0000000000E+00+
*       0.0000000000E+00               0
GRID*                327               03.0000000000E+014.0000000000E+00+
*       0.0000000000E+00               0
GRID*                328               03.1000000000E+014.0000000000E+00+
*       0.0000000000E+00               0
GRID*                329               03.2000000000E+014.0000000000E+00+
*       0.0000000000E+00               0
GRID*                330               03.3000000000E+014.0000000000E+00+
*       0.0000000000E+00               0
GRID*                331               03.4000000000E+014.0000000000E+00+
*       0.0000000000E+00               0
GRID*                332               03.5000000000E+014.0000000000E+00+
*       0.0000000000E+00               0
GRID*                333               03.6000000000E+014.0000000000E+00+
*       0.0000000000E+00               0
GRID*                334               03.7000000000E+014.0000000000E+00+
*       0.0000000000E+00               0
GRID*                335               03.8000000000E+014.0000000000E+00+
*       0.0000000000E+00               0
GRID*                336               03.9000000000E+014.0000000000E+00+
*       0.0000000000E+00               0
GRID*                337               04.0000000000E+014.0000000000E+00+
*       0.0000000000E+00               0
GRID*                338               04.1000000000E+014.0000000000E+00+
*       0.0000000000E+00               0
GRID*                339               04.2000000000E+014.0000000000E+00+
*       0.0000000000E+00               0
GRID*                340               04.3000000000E+014.0000000000E+00+
*       0.0000000000E+00               0
GRID*                341               04.4000000000E+014.0000000000E+00+
*       0.0000000000E+00               0
GRID*                342               04.5000000000E+014.0000000000E+00+
*       0.0000000000E+00               0
GRID*                343               04.6000000000E+014.0000000000E+00+
*       0.0000000000E+00               0
GRID*                344               04.7000000000E+014.0000000000E+00+
*       0.0000000000E+00               0
GRID*                345               04.8000000000E+014.0000000000E+00+
*       0.0000000000E+00               0
GRID*                346               04.9000000000E+014.0000000000E+00+
*       0.0000000000E+00               0
GRID*                347               05.0000000000E+014.0000000000E+00+
*       0.0000000000E+00               0
GRID*                348               05.1000000000E+014.0000000000E+00+
*       0.0000000000E+00               0
GRID*                349               05.2000000000E+014.0000000000E+00+
*       0.0000000000E+00               0
GRID*                350               05.3000000000E+014.0000000000E+00+
*       0.0000000000E+00               0
GRID*                351               05.4000000000E+014.0000000000E+00+
*       0.0000000000E+00               0
GRID*                352               05.5000000000E+014.0000000000E+00+
*       0.0000000000E+00               0
GRID*                353               05.6000000000E+014.0000000000E+00+
*       0.0000000000E+00               0
GRID*                354               05.7000000000E+014.0000000000E+00+
*       0.0000000000E+00               0
GRID*                355               05.8000000000E+014.0000000000E+00+
*       0.0000000000E+00               0
GRID*                356               05.9000000000E+014.0000000000E+00+
*       0.0000000000E+00               0
GRID*                357               06.0000000000E+014.0000000000E+00+
*       0.0000000000E+00               0
GRID*                358               06.1000000000E+014.0000000000E+00+
*       0.0000000000E+00               0
GRID*                359               06.2000000000E+014.0000000000E+00+
*       0.0000000000E+00               0
GRID*                360               06.3000000000E+014.0000000000E+00+
*       0.0000000000E+00               0
GRID*                361               06.4000000000E+014.0000000000E+00+
*       0.0000000000E+00               0
GRID*                362               06.5000000000E+014.0000000000E+00+
*       0.0000000000E+00               0
GRID*                363               06.6000000000E+014.0000000000E+00+
*       0.0000000000E+00               0
GRID*                364               06.7000000000E+014.0000000000E+00+
*       0.0000000000E+00               0
GRID*                365               06.8000000000E+014.0000000000E+00+
*       0.0000000000E+00               0
GRID*                366               06.9000000000E+014.0000000000E+00+
*       0.0000000000E+00               0
GRID*                367               07.0000000000E+014.0000000000E+00+
*       0.0000000000E+00               0
GRID*                368               07.1000000000E+014.0000000000E+00+
*       0.0000000000E+00               0
GRID*                369               07.2000000000E+014.0000000000E+00+
*       0.0000000000E+00               0
GRID*                370               07.3000000000E+014.0000000000E+00+
*       0.0000000000E+00               0
GRID*                371               07.4000000000E+014.0000000000E+00+
*       0.0000000000E+00               0
GRID*                372               07.5000000000E+014.0000000000E+00+
*       0.0000000000E+00               0
GRID*                373               07.6000000000E+014.0000000000E+00+
*       0.0000000000E+00               0
GRID*                374               07.7000000000E+014.0000000000E+00+
*       0.0000000000E+00               0
GRID*                375               07.8000000000E+014.0000000000E+00+
*       0.0000000000E+00               0
GRID*                376               07.9000000000E+014.0000000000E+00+
*       0.0000000000E+00               0
GRID*                377               08.0000000000E+014.0000000000E+00+
*       0.0000000000E+00               0
GRID*                378               08.1000000000E+014.0000000000E+00+
*       0.0000000000E+00               0
GRID*                379               08.2000000000E+014.0000000000E+00+
*       0.0000000000E+00               0
GRID*                380               08.3000000000E+014.0000000000E+00+
*       0.0000000000E+00               0
GRID*                381               08.4000000000E+014.0000000000E+00+
*       0.0000000000E+00               0
GRID*                382               08.5000000000E+014.0000000000E+00+
*       0.0000000000E+00               0
GRID*                383               08.6000000000E+014.0000000000E+00+
*       0.0000000000E+00               0
GRID*                384               08.7000000000E+014.0000000000E+00+
*       0.0000000000E+00               0
GRID*                385               08.8000000000E+014.0000000000E+00+
*       0.0000000000E+00               0
GRID*                386               08.9000000000E+014.0000000000E+00+
*       0.0000000000E+00               0
GRID*                387               09.0000000000E+014.0000000000E+00+
*       0.0000000000E+00               0
GRID*                388               09.1000000000E+014.0000000000E+00+
*       0.0000000000E+00               0
GRID*                389               09.2000000000E+014.0000000000E+00+
*       0.0000000000E+00               0
GRID*                390               09.3000000000E+014.0000000000E+00+
*       0.0000000000E+00               0
GRID*                391               09.4000000000E+014.0000000000E+00+
*       0.0000000000E+00               0
GRID*                392               09.5000000000E+014.0000000000E+00+
*       0.0000000000E+00               0
GRID*                393               09.6000000000E+014.0000000000E+00+
*       0.0000000000E+00               0
GRID*                394               09.7000000000E+014.0000000000E+00+
*       0.0000000000E+00               0
GRID*                395               09.8000000000E+014.0000000000E+00+
*       0.0000000000E+00               0
GRID*                396               09.9000000000E+014.0000000000E+00+
*       0.0000000000E+00               0
GRID*                397               01.0000000000E+005.0000000000E+00+
*       0.0000000000E+00               0
GRID*                398               02.0000000000E+005.0000000000E+00+
*       0.0000000000E+00               0
GRID*                399               03.0000000000E+005.0000000000E+00+
*       0.0000000000E+00               0
GRID*                400               04.0000000000E+005.0000000000E+00+
*       0.0000000000E+00               0
GRID*                401               05.0000000000E+005.0000000000E+00+
*       0.0000000000E+00               0
GRID*                402               06.0000000000E+005.0000000000E+00+
*       0.0000000000E+00               0
GRID*                403               07.0000000000E+005.0000000000E+00+
*       0.0000000000E+00               0
GRID*                404               08.0000000000E+005.0000000000E+00+
*       0.0000000000E+00               0
GRID*                405               09.0000000000E+005.0000000000E+00+
*       0.0000000000E+00               0
GRID*                406               01.0000000000E+015.0000000000E+00+
*       0.0000000000E+00               0
GRID*                407               01.1000000000E+015.0000000000E+00+
*       0.0000000000E+00               0
GRID*                408               01.2000000000E+015.0000000000E+00+
*       0.0000000000E+00               0
GRID*                409               01.3000000000E+015.0000000000E+00+
*       0.0000000000E+00               0
GRID*                410               01.4000000000E+015.0000000000E+00+
*       0.0000000000E+00               0
GRID*                411               01.5000000000E+015.0000000000E+00+
*       0.0000000000E+00               0
GRID*                412               01.6000000000E+015.0000000000E+00+
*       0.0000000000E+00               0
GRID*                413               01.7000000000E+015.0000000000E+00+
*       0.0000000000E+00               0
GRID*                414               01.8000000000E+015.0000000000E+00+
*       0.0000000000E+00               0
GRID*                415               01.9000000000E+015.0000000000E+00+
*       0.0000000000E+00               0
GRID*                416               02.0000000000E+015.0000000000E+00+
*       0.0000000000E+00               0
GRID*                417               02.1000000000E+015.0000000000E+00+
*       0.0000000000E+00               0
GRID*                418               02.2000000000E+015.0000000000E+00+
*       0.0000000000E+00               0
GRID*                419               02.3000000000E+015.0000000000E+00+
*       0.0000000000E+00               0
GRID*                420               02.4000000000E+015.0000000000E+00+
*       0.0000000000E+00               0
GRID*                421               02.5000000000E+015.0000000000E+00+
*       0.0000000000E+00               0
GRID*                422               02.6000000000E+015.0000000000E+00+
*       0.0000000000E+00               0
GRID*                423               02.7000000000E+015.0000000000E+00+
*       0.0000000000E+00               0
GRID*                424               02.8000000000E+015.0000000000E+00+
*       0.0000000000E+00               0
GRID*                425               02.9000000000E+015.0000000000E+00+
*       0.0000000000E+00               0
GRID*                426               03.0000000000E+015.0000000000E+00+
*       0.0000000000E+00               0
GRID*                427               03.1000000000E+015.0000000000E+00+
*       0.0000000000E+00               0
GRID*                428               03.2000000000E+015.0000000000E+00+
*       0.0000000000E+00               0
GRID*                429               03.3000000000E+015.0000000000E+00+
*       0.0000000000E+00               0
GRID*                430               03.4000000000E+015.0000000000E+00+
*       0.0000000000E+00               0
GRID*                431               03.5000000000E+015.0000000000E+00+
*       0.0000000000E+00               0
GRID*                432               03.6000000000E+015.0000000000E+00+
*       0.0000000000E+00               0
GRID*                433               03.7000000000E+015.0000000000E+00+
*       0.0000000000E+00               0
GRID*                434               03.8000000000E+015.0000000000E+00+
*       0.0000000000E+00               0
GRID*                435               03.9000000000E+015.0000000000E+00+
*       0.0000000000E+00               0
GRID*                436               04.0000000000E+015.0000000000E+00+
*       0.0000000000E+00               0
GRID*                437               04.1000000000E+015.0000000000E+00+
*       0.0000000000E+00               0
GRID*                438               04.2000000000E+015.0000000000E+00+
*       0.0000000000E+00               0
GRID*                439               04.3000000000E+015.0000000000E+00+
*       0.0000000000E+00               0
GRID*                440               04.4000000000E+015.0000000000E+00+
*       0.0000000000E+00               0
GRID*                441               04.5000000000E+015.0000000000E+00+
*       0.0000000000E+00               0
GRID*                442               04.6000000000E+015.0000000000E+00+
*       0.0000000000E+00               0
GRID*                443               04.7000000000E+015.0000000000E+00+
*       0.0000000000E+00               0
GRID*                444               04.8000000000E+015.0000000000E+00+
*       0.0000000000E+00               0
GRID*                445               04.9000000000E+015.0000000000E+00+
*       0.0000000000E+00               0
GRID*                446               05.0000000000E+015.0000000000E+00+
*       0.0000000000E+00               0
GRID*                447               05.1000000000E+015.0000000000E+00+
*       0.0000000000E+00               0
GRID*                448               05.2000000000E+015.0000000000E+00+
*       0.0000000000E+00               0
GRID*                449               05.3000000000E+015.0000000000E+00+
*       0.0000000000E+00               0
GRID*                450               05.4000000000E+015.0000000000E+00+
*       0.0000000000E+00               0
GRID*                451               05.5000000000E+015.0000000000E+00+
*       0.0000000000E+00               0
GRID*                452               05.6000000000E+015.0000000000E+00+
*       0.0000000000E+00               0
GRID*                453               05.7000000000E+015.0000000000E+00+
*       0.0000000000E+00               0
GRID*                454               05.8000000000E+015.0000000000E+00+
*       0.0000000000E+00               0
GRID*                455               05.9000000000E+015.0000000000E+00+
*       0.0000000000E+00               0
GRID*                456               06.0000000000E+015.0000000000E+00+
*       0.0000000000E+00               0
GRID*                457               06.1000000000E+015.0000000000E+00+
*       0.0000000000E+00               0
GRID*                458               06.2000000000E+015.0000000000E+00+
*       0.0000000000E+00               0
GRID*                459               06.3000000000E+015.0000000000E+00+
*       0.0000000000E+00               0
GRID*                460               06.4000000000E+015.0000000000E+00+
*       0.0000000000E+00               0
GRID*                461               06.5000000000E+015.0000000000E+00+
*       0.0000000000E+00               0
GRID*                462               06.6000000000E+015.0000000000E+00+
*       0.0000000000E+00               0
GRID*                463               06.7000000000E+015.0000000000E+00+
*       0.0000000000E+00               0
GRID*                464               06.8000000000E+015.0000000000E+00+
*       0.0000000000E+00               0
GRID*                465               06.9000000000E+015.0000000000E+00+
*       0.0000000000E+00               0
GRID*                466               07.0000000000E+015.0000000000E+00+
*       0.0000000000E+00               0
GRID*                467               07.1000000000E+015.0000000000E+00+
*       0.0000000000E+00               0
GRID*                468               07.2000000000E+015.0000000000E+00+
*       0.0000000000E+00               0
GRID*                469               07.3000000000E+015.0000000000E+00+
*       0.0000000000E+00               0
GRID*                470               07.4000000000E+015.0000000000E+00+
*       0.0000000000E+00               0
GRID*                471               07.5000000000E+015.0000000000E+00+
*       0.0000000000E+00               0
GRID*                472               07.6000000000E+015.0000000000E+00+
*       0.0000000000E+00               0
GRID*                473               07.7000000000E+015.0000000000E+00+
*       0.0000000000E+00               0
GRID*                474               07.8000000000E+015.0000000000E+00+
*       0.0000000000E+00               0
GRID*                475               07.9000000000E+015.0000000000E+00+
*       0.0000000000E+00               0
GRID*                476               08.0000000000E+015.0000000000E+00+
*       0.0000000000E+00               0
GRID*                477               08.1000000000E+015.0000000000E+00+
*       0.0000000000E+00               0
GRID*                478               08.2000000000E+015.0000000000E+00+
*       0.0000000000E+00               0
GRID*                479               08.3000000000E+015.0000000000E+00+
*       0.0000000000E+00               0
GRID*                480               08.4000000000E+015.0000000000E+00+
*       0.0000000000E+00               0
GRID*                481               08.5000000000E+015.0000000000E+00+
*       0.0000000000E+00               0
GRID*                482               08.6000000000E+015.0000000000E+00+
*       0.0000000000E+00               0
GRID*                483               08.7000000000E+015.0000000000E+00+
*       0.0000000000E+00               0
GRID*                484               08.8000000000E+015.0000000000E+00+
*       0.0000000000E+00               0
GRID*                485               08.9000000000E+015.0000000000E+00+
*       0.0000000000E+00               0
GRID*                486               09.0000000000E+015.0000000000E+00+
*       0.0000000000E+00               0
GRID*                487               09.1000000000E+015.0000000000E+00+
*       0.0000000000E+00               0
GRID*                488               09.2000000000E+015.0000000000E+00+
*       0.0000000000E+00               0
GRID*                489               09.3000000000E+015.0000000000E+00+
*       0.0000000000E+00               0
GRID*                490               09.4000000000E+015.0000000000E+00+
*       0.0000000000E+00               0
GRID*                491               09.5000000000E+015.0000000000E+00+
*       0.0000000000E+00               0
GRID*                492               09.6000000000E+015.0000000000E+00+
*       0.0000000000E+00               0
GRID*                493               09.7000000000E+015.0000000000E+00+
*       0.0000000000E+00               0
GRID*                494               09.8000000000E+015.0000000000E+00+
*       0.0000000000E+00               0
GRID*                495               09.9000000000E+015.0000000000E+00+
*       0.0000000000E+00               0
GRID*                496               01.0000000000E+006.0000000000E+00+
*       0.0000000000E+00               0
GRID*                497               02.0000000000E+006.0000000000E+00+
*       0.0000000000E+00               0
GRID*                498               03.0000000000E+006.0000000000E+00+
*       0.0000000000E+00               0
GRID*                499               04.0000000000E+006.0000000000E+00+
*       0.0000000000E+00               0
GRID*                500               05.0000000000E+006.0000000000E+00+
*       0.0000000000E+00               0
GRID*                501               06.0000000000E+006.0000000000E+00+
*       0.0000000000E+00               0
GRID*                502               07.0000000000E+006.0000000000E+00+
*       0.0000000000E+00               0
GRID*                503               08.0000000000E+006.0000000000E+00+
*       0.0000000000E+00               0
GRID*                504               09.0000000000E+006.0000000000E+00+
*       0.0000000000E+00               0
GRID*                505               01.0000000000E+016.0000000000E+00+
*       0.0000000000E+00               0
GRID*                506               01.1000000000E+016.0000000000E+00+
*       0.0000000000E+00               0
GRID*                507               01.2000000000E+016.0000000000E+00+
*       0.0000000000E+00               0
GRID*                508               01.3000000000E+016.0000000000E+00+
*       0.0000000000E+00               0
GRID*                509               01.4000000000E+016.0000000000E+00+
*       0.0000000000E+00               0
GRID*                510               01.5000000000E+016.0000000000E+00+
*       0.0000000000E+00               0
GRID*                511               01.6000000000E+016.0000000000E+00+
*       0.0000000000E+00               0
GRID*                512               01.7000000000E+016.0000000000E+00+
*       0.0000000000E+00               0
GRID*                513               01.8000000000E+016.0000000000E+00+
*       0.0000000000E+00               0
GRID*                514               01.9000000000E+016.0000000000E+00+
*       0.0000000000E+00               0
GRID*                515               02.0000000000E+016.0000000000E+00+
*       0.0000000000E+00               0
GRID*                516               02.1000000000E+016.0000000000E+00+
*       0.0000000000E+00               0
GRID*                517               02.2000000000E+016.0000000000E+00+
*       0.0000000000E+00               0
GRID*                518               02.3000000000E+016.0000000000E+00+
*       0.0000000000E+00               0
GRID*                519               02.4000000000E+016.0000000000E+00+
*       0.0000000000E+00               0
GRID*                520               02.5000000000E+016.0000000000E+00+
*       0.0000000000E+00               0
GRID*                521               02.6000000000E+016.0000000000E+00+
*       0.0000000000E+00               0
GRID*                522               02.7000000000E+016.0000000000E+00+
*       0.0000000000E+00               0
GRID*                523               02.8000000000E+016.0000000000E+00+
*       0.0000000000E+00               0
GRID*                524               02.9000000000E+016.0000000000E+00+
*       0.0000000000E+00               0
GRID*                525               03.0000000000E+016.0000000000E+00+
*       0.0000000000E+00               0
GRID*                526               03.1000000000E+016.0000000000E+00+
*       0.0000000000E+00               0
GRID*                527               03.2000000000E+016.0000000000E+00+
*       0.0000000000E+00               0
GRID*                528               03.3000000000E+016.0000000000E+00+
*       0.0000000000E+00               0
GRID*                529               03.4000000000E+016.0000000000E+00+
*       0.0000000000E+00               0
GRID*                530               03.5000000000E+016.0000000000E+00+
*       0.0000000000E+00               0
GRID*                531               03.6000000000E+016.0000000000E+00+
*       0.0000000000E+00               0
GRID*                532               03.7000000000E+016.0000000000E+00+
*       0.0000000000E+00               0
GRID*                533               03.8000000000E+016.0000000000E+00+
*       0.0000000000E+00               0
GRID*                534               03.9000000000E+016.0000000000E+00+
*       0.0000000000E+00               0
GRID*                535               04.0000000000E+016.0000000000E+00+
*       0.0000000000E+00               0
GRID*                536               04.1000000000E+016.0000000000E+00+
*       0.0000000000E+00               0
GRID*                537               04.2000000000E+016.0000000000E+00+
*       0.0000000000E+00               0
GRID*                538               04.3000000000E+016.0000000000E+00+
*       0.0000000000E+00               0
GRID*                539               04.4000000000E+016.0000000000E+00+
*       0.0000000000E+00               0
GRID*                540               04.5000000000E+016.0000000000E+00+
*       0.0000000000E+00               0
GRID*                541               04.6000000000E+016.0000000000E+00+
*       0.0000000000E+00               0
GRID*                542               04.7000000000E+016.0000000000E+00+
*       0.0000000000E+00               0
GRID*                543               04.8000000000E+016.0000000000E+00+
*       0.0000000000E+00               0
GRID*                544               04.9000000000E+016.0000000000E+00+
*       0.0000000000E+00               0
GRID*                545               05.0000000000E+016.0000000000E+00+
*       0.0000000000E+00               0
GRID*                546               05.1000000000E+016.0000000000E+00+
*       0.0000000000E+00               0
GRID*                547               05.2000000000E+016.0000000000E+00+
*       0.0000000000E+00               0
GRID*                548               05.3000000000E+016.0000000000E+00+
*       0.0000000000E+00               0
GRID*                549               05.4000000000E+016.0000000000E+00+
*       0.0000000000E+00               0
GRID*                550               05.5000000000E+016.0000000000E+00+
*       0.0000000000E+00               0
GRID*                551               05.6000000000E+016.0000000000E+00+
*       0.0000000000E+00               0
GRID*                552               05.7000000000E+016.0000000000E+00+
*       0.0000000000E+00               0
GRID*                553               05.8000000000E+016.0000000000E+00+
*       0.0000000000E+00               0
GRID*                554               05.9000000000E+016.0000000000E+00+
*       0.0000000000E+00               0
GRID*                555               06.0000000000E+016.0000000000E+00+
*       0.0000000000E+00               0
GRID*                556               06.1000000000E+016.0000000000E+00+
*       0.0000000000E+00               0
GRID*                557               06.2000000000E+016.0000000000E+00+
*       0.0000000000E+00               0
GRID*                558               06.3000000000E+016.0000000000E+00+
*       0.0000000000E+00               0
GRID*                559               06.4000000000E+016.0000000000E+00+
*       0.0000000000E+00               0
GRID*                560               06.5000000000E+016.0000000000E+00+
*       0.0000000000E+00               0
GRID*                561               06.6000000000E+016.0000000000E+00+
*       0.0000000000E+00               0
GRID*                562               06.7000000000E+016.0000000000E+00+
*       0.0000000000E+00               0
GRID*                563               06.8000000000E+016.0000000000E+00+
*       0.0000000000E+00               0
GRID*                564               06.9000000000E+016.0000000000E+00+
*       0.0000000000E+00               0
GRID*                565               07.0000000000E+016.0000000000E+00+
*       0.0000000000E+00               0
GRID*                566               07.1000000000E+016.0000000000E+00+
*       0.0000000000E+00               0
GRID*                567               07.2000000000E+016.0000000000E+00+
*       0.0000000000E+00               0
GRID*                568               07.3000000000E+016.0000000000E+00+
*       0.0000000000E+00               0
GRID*                569               07.4000000000E+016.0000000000E+00+
*       0.0000000000E+00               0
GRID*                570               07.5000000000E+016.0000000000E+00+
*       0.0000000000E+00               0
GRID*                571               07.6000000000E+016.0000000000E+00+
*       0.0000000000E+00               0
GRID*                572               07.7000000000E+016.0000000000E+00+
*       0.0000000000E+00               0
GRID*                573               07.8000000000E+016.0000000000E+00+
*       0.0000000000E+00               0
GRID*                574               07.9000000000E+016.0000000000E+00+
*       0.0000000000E+00               0
GRID*                575               08.0000000000E+016.0000000000E+00+
*       0.0000000000E+00               0
GRID*                576               08.1000000000E+016.0000000000E+00+
*       0.0000000000E+00               0
GRID*                577               08.2000000000E+016.0000000000E+00+
*       0.0000000000E+00               0
GRID*                578               08.3000000000E+016.0000000000E+00+
*       0.0000000000E+00               0
GRID*                579               08.4000000000E+016.0000000000E+00+
*       0.0000000000E+00               0
GRID*                580               08.5000000000E+016.0000000000E+00+
*       0.0000000000E+00               0
GRID*                581               08.6000000000E+016.0000000000E+00+
*       0.0000000000E+00               0
GRID*                582               08.7000000000E+016.0000000000E+00+
*       0.0000000000E+00               0
GRID*                583               08.8000000000E+016.0000000000E+00+
*       0.0000000000E+00               0
GRID*                584               08.9000000000E+016.0000000000E+00+
*       0.0000000000E+00               0
GRID*                585               09.0000000000E+016.0000000000E+00+
*       0.0000000000E+00               0
GRID*                586               09.1000000000E+016.0000000000E+00+
*       0.0000000000E+00               0
GRID*                587               09.2000000000E+016.0000000000E+00+
*       0.0000000000E+00               0
GRID*                588               09.3000000000E+016.0000000000E+00+
*       0.0000000000E+00               0
GRID*                589               09.4000000000E+016.0000000000E+00+
*       0.0000000000E+00               0
GRID*                590               09.5000000000E+016.0000000000E+00+
*       0.0000000000E+00               0
GRID*                591               09.6000000000E+016.0000000000E+00+
*       0.0000000000E+00               0
GRID*                592               09.7000000000E+016.0000000000E+00+
*       0.0000000000E+00               0
GRID*                593               09.8000000000E+016.0000000000E+00+
*       0.0000000000E+00               0
GRID*                594               09.9000000000E+016.0000000000E+00+
*       0.0000000000E+00               0
GRID*                595               01.0000000000E+007.0000000000E+00+
*       0.0000000000E+00               0
GRID*                596               02.0000000000E+007.0000000000E+00+
*       0.0000000000E+00               0
GRID*                597               03.0000000000E+007.0000000000E+00+
*       0.0000000000E+00               0
GRID*                598               04.0000000000E+007.0000000000E+00+
*       0.0000000000E+00               0
GRID*                599               05.0000000000E+007.0000000000E+00+
*       0.0000000000E+00               0
GRID*                600               06.0000000000E+007.0000000000E+00+
*       0.0000000000E+00               0
GRID*                601               07.0000000000E+007.0000000000E+00+
*       0.0000000000E+00               0
GRID*                602               08.0000000000E+007.0000000000E+00+
*       0.0000000000E+00               0
GRID*                603               09.0000000000E+007.0000000000E+00+
*       0.0000000000E+00               0
GRID*                604               01.0000000000E+017.0000000000E+00+
*       0.0000000000E+00               0
GRID*                605               01.1000000000E+017.0000000000E+00+
*       0.0000000000E+00               0
GRID*                606               01.2000000000E+017.0000000000E+00+
*       0.0000000000E+00               0
GRID*                607               01.3000000000E+017.0000000000E+00+
*       0.0000000000E+00               0
GRID*                608               01.4000000000E+017.0000000000E+00+
*       0.0000000000E+00               0
GRID*                609               01.5000000000E+017.0000000000E+00+
*       0.0000000000E+00               0
GRID*                610               01.6000000000E+017.0000000000E+00+
*       0.0000000000E+00               0
GRID*                611               01.7000000000E+017.0000000000E+00+
*       0.0000000000E+00               0
GRID*                612               01.8000000000E+017.0000000000E+00+
*       0.0000000000E+00               0
GRID*                613               01.9000000000E+017.0000000000E+00+
*       0.0000000000E+00               0
GRID*                614               02.0000000000E+017.0000000000E+00+
*       0.0000000000E+00               0
GRID*                615               02.1000000000E+017.0000000000E+00+
*       0.0000000000E+00               0
GRID*                616               02.2000000000E+017.0000000000E+00+
*       0.0000000000E+00               0
GRID*                617               02.3000000000E+017.0000000000E+00+
*       0.0000000000E+00               0
GRID*                618               02.4000000000E+017.0000000000E+00+
*       0.0000000000E+00               0
GRID*                619               02.5000000000E+017.0000000000E+00+
*       0.0000000000E+00               0
GRID*                620               02.6000000000E+017.0000000000E+00+
*       0.0000000000E+00               0
GRID*                621               02.7000000000E+017.0000000000E+00+
*       0.0000000000E+00               0
GRID*                622               02.8000000000E+017.0000000000E+00+
*       0.0000000000E+00               0
GRID*                623               02.9000000000E+017.0000000000E+00+
*       0.0000000000E+00               0
GRID*                624               03.0000000000E+017.0000000000E+00+
*       0.0000000000E+00               0
GRID*                625               03.1000000000E+017.0000000000E+00+
*       0.0000000000E+00               0
GRID*                626               03.2000000000E+017.0000000000E+00+
*       0.0000000000E+00               0
GRID*                627               03.3000000000E+017.0000000000E+00+
*       0.0000000000E+00               0
GRID*                628               03.4000000000E+017.0000000000E+00+
*       0.0000000000E+00               0
GRID*                629               03.5000000000E+017.0000000000E+00+
*       0.0000000000E+00               0
GRID*                630               03.6000000000E+017.0000000000E+00+
*       0.0000000000E+00               0
GRID*                631               03.7000000000E+017.0000000000E+00+
*       0.0000000000E+00               0
GRID*                632               03.8000000000E+017.0000000000E+00+
*       0.0000000000E+00               0
GRID*                633               03.9000000000E+017.0000000000E+00+
*       0.0000000000E+00               0
GRID*                634               04.0000000000E+017.0000000000E+00+
*       0.0000000000E+00               0
GRID*                635               04.1000000000E+017.0000000000E+00+
*       0.0000000000E+00               0
GRID*                636               04.2000000000E+017.0000000000E+00+
*       0.0000000000E+00               0
GRID*                637               04.3000000000E+017.0000000000E+00+
*       0.0000000000E+00               0
GRID*                638               04.4000000000E+017.0000000000E+00+
*       0.0000000000E+00               0
GRID*                639               04.5000000000E+017.0000000000E+00+
*       0.0000000000E+00               0
GRID*                640               04.6000000000E+017.0000000000E+00+
*       0.0000000000E+00               0
GRID*                641               04.7000000000E+017.0000000000E+00+
*       0.0000000000E+00               0
GRID*                642               04.8000000000E+017.0000000000E+00+
*       0.0000000000E+00               0
GRID*                643               04.9000000000E+017.0000000000E+00+
*       0.0000000000E+00               0
GRID*                644               05.0000000000E+017.0000000000E+00+
*       0.0000000000E+00               0
GRID*                645               05.1000000000E+017.0000000000E+00+
*       0.0000000000E+00               0
GRID*                646               05.2000000000E+017.0000000000E+00+
*       0.0000000000E+00               0
GRID*                647               05.3000000000E+017.0000000000E+00+
*       0.0000000000E+00               0
GRID*                648               05.4000000000E+017.0000000000E+00+
*       0.0000000000E+00               0
GRID*                649               05.5000000000E+017.0000000000E+00+
*       0.0000000000E+00               0
GRID*                650               05.6000000000E+017.0000000000E+00+
*       0.0000000000E+00               0
GRID*                651               05.7000000000E+017.0000000000E+00+
*       0.0000000000E+00               0
GRID*                652               05.8000000000E+017.0000000000E+00+
*       0.0000000000E+00               0
GRID*                653               05.9000000000E+017.0000000000E+00+
*       0.0000000000E+00               0
GRID*                654               06.0000000000E+017.0000000000E+00+
*       0.0000000000E+00               0
GRID*                655               06.1000000000E+017.0000000000E+00+
*       0.0000000000E+00               0
GRID*                656               06.2000000000E+017.0000000000E+00+
*       0.0000000000E+00               0
GRID*                657               06.3000000000E+017.0000000000E+00+
*       0.0000000000E+00               0
GRID*                658               06.4000000000E+017.0000000000E+00+
*       0.0000000000E+00               0
GRID*                659               06.5000000000E+017.0000000000E+00+
*       0.0000000000E+00               0
GRID*                660               06.6000000000E+017.0000000000E+00+
*       0.0000000000E+00               0
GRID*                661               06.7000000000E+017.0000000000E+00+
*       0.0000000000E+00               0
GRID*                662               06.8000000000E+017.0000000000E+00+
*       0.0000000000E+00               0
GRID*                663               06.9000000000E+017.0000000000E+00+
*       0.0000000000E+00               0
GRID*                664               07.0000000000E+017.0000000000E+00+
*       0.0000000000E+00               0
GRID*                665               07.1000000000E+017.0000000000E+00+
*       0.0000000000E+00               0
GRID*                666               07.2000000000E+017.0000000000E+00+
*       0.0000000000E+00               0
GRID*                667               07.3000000000E+017.0000000000E+00+
*       0.0000000000E+00               0
GRID*                668               07.4000000000E+017.0000000000E+00+
*       0.0000000000E+00               0
GRID*                669               07.5000000000E+017.0000000000E+00+
*       0.0000000000E+00               0
GRID*                670               07.6000000000E+017.0000000000E+00+
*       0.0000000000E+00               0
GRID*                671               07.7000000000E+017.0000000000E+00+
*       0.0000000000E+00               0
GRID*                672               07.8000000000E+017.0000000000E+00+
*       0.0000000000E+00               0
GRID*                673               07.9000000000E+017.0000000000E+00+
*       0.0000000000E+00               0
GRID*                674               08.0000000000E+017.0000000000E+00+
*       0.0000000000E+00               0
GRID*                675               08.1000000000E+017.0000000000E+00+
*       0.0000000000E+00               0
GRID*                676               08.2000000000E+017.0000000000E+00+
*       0.0000000000E+00               0
GRID*                677               08.3000000000E+017.0000000000E+00+
*       0.0000000000E+00               0
GRID*                678               08.4000000000E+017.0000000000E+00+
*       0.0000000000E+00               0
GRID*                679               08.5000000000E+017.0000000000E+00+
*       0.0000000000E+00               0
GRID*                680               08.6000000000E+017.0000000000E+00+
*       0.0000000000E+00               0
GRID*                681               08.7000000000E+017.0000000000E+00+
*       0.0000000000E+00               0
GRID*                682               08.8000000000E+017.0000000000E+00+
*       0.0000000000E+00               0
GRID*                683               08.9000000000E+017.0000000000E+00+
*       0.0000000000E+00               0
GRID*                684               09.0000000000E+017.0000000000E+00+
*       0.0000000000E+00               0
GRID*                685               09.1000000000E+017.0000000000E+00+
*       0.0000000000E+00               0
GRID*                686               09.2000000000E+017.0000000000E+00+
*       0.0000000000E+00               0
GRID*                687               09.3000000000E+017.0000000000E+00+
*       0.0000000000E+00               0
GRID*                688               09.4000000000E+017.0000000000E+00+
*       0.0000000000E+00               0
GRID*                689               09.5000000000E+017.0000000000E+00+
*       0.0000000000E+00               0
GRID*                690               09.6000000000E+017.0000000000E+00+
*       0.0000000000E+00               0
GRID*                691               09.7000000000E+017.0000000000E+00+
*       0.0000000000E+00               0
GRID*                692               09.8000000000E+017.0000000000E+00+
*       0.0000000000E+00               0
GRID*                693               09.9000000000E+017.0000000000E+00+
*       0.0000000000E+00               0
GRID*                694               01.0000000000E+008.0000000000E+00+
*       0.0000000000E+00               0
GRID*                695               02.0000000000E+008.0000000000E+00+
*       0.0000000000E+00               0
GRID*                696               03.0000000000E+008.0000000000E+00+
*       0.0000000000E+00               0
GRID*                697               04.0000000000E+008.0000000000E+00+
*       0.0000000000E+00               0
GRID*                698               05.0000000000E+008.0000000000E+00+
*       0.0000000000E+00               0
GRID*                699               06.0000000000E+008.0000000000E+00+
*       0.0000000000E+00               0
GRID*                700               07.0000000000E+008.0000000000E+00+
*       0.0000000000E+00               0
GRID*                701               08.0000000000E+008.0000000000E+00+
*       0.0000000000E+00               0
GRID*                702               09.0000000000E+008.0000000000E+00+
*       0.0000000000E+00               0
GRID*                703               01.0000000000E+018.0000000000E+00+
*       0.0000000000E+00               0
GRID*                704               01.1000000000E+018.0000000000E+00+
*       0.0000000000E+00               0
GRID*                705               01.2000000000E+018.0000000000E+00+
*       0.0000000000E+00               0
GRID*                706               01.3000000000E+018.0000000000E+00+
*       0.0000000000E+00               0
GRID*                707               01.4000000000E+018.0000000000E+00+
*       0.0000000000E+00               0
GRID*                708               01.5000000000E+018.0000000000E+00+
*       0.0000000000E+00               0
GRID*                709               01.6000000000E+018.0000000000E+00+
*       0.0000000000E+00               0
GRID*                710               01.7000000000E+018.0000000000E+00+
*       0.0000000000E+00               0
GRID*                711               01.8000000000E+018.0000000000E+00+
*       0.0000000000E+00               0
GRID*                712               01.9000000000E+018.0000000000E+00+
*       0.0000000000E+00               0
GRID*                713               02.0000000000E+018.0000000000E+00+
*       0.0000000000E+00               0
GRID*                714               02.1000000000E+018.0000000000E+00+
*       0.0000000000E+00               0
GRID*                715               02.2000000000E+018.0000000000E+00+
*       0.0000000000E+00               0
GRID*                716               02.3000000000E+018.0000000000E+00+
*       0.0000000000E+00               0
GRID*                717               02.4000000000E+018.0000000000E+00+
*       0.0000000000E+00               0
GRID*                718               02.5000000000E+018.0000000000E+00+
*       0.0000000000E+00               0
GRID*                719               02.6000000000E+018.0000000000E+00+
*       0.0000000000E+00               0
GRID*                720               02.7000000000E+018.0000000000E+00+
*       0.0000000000E+00               0
GRID*                721               02.8000000000E+018.0000000000E+00+
*       0.0000000000E+00               0
GRID*                722               02.9000000000E+018.0000000000E+00+
*       0.0000000000E+00               0
GRID*                723               03.0000000000E+018.0000000000E+00+
*       0.0000000000E+00               0
GRID*                724               03.1000000000E+018.0000000000E+00+
*       0.0000000000E+00               0
GRID*                725               03.2000000000E+018.0000000000E+00+
*       0.0000000000E+00               0
GRID*                726               03.3000000000E+018.0000000000E+00+
*       0.0000000000E+00               0
GRID*                727               03.4000000000E+018.0000000000E+00+
*       0.0000000000E+00               0
GRID*                728               03.5000000000E+018.0000000000E+00+
*       0.0000000000E+00               0
GRID*                729               03.6000000000E+018.0000000000E+00+
*       0.0000000000E+00               0
GRID*                730               03.7000000000E+018.0000000000E+00+
*       0.0000000000E+00               0
GRID*                731               03.8000000000E+018.0000000000E+00+
*       0.0000000000E+00               0
GRID*                732               03.9000000000E+018.0000000000E+00+
*       0.0000000000E+00               0
GRID*                733               04.0000000000E+018.0000000000E+00+
*       0.0000000000E+00               0
GRID*                734               04.1000000000E+018.0000000000E+00+
*       0.0000000000E+00               0
GRID*                735               04.2000000000E+018.0000000000E+00+
*       0.0000000000E+00               0
GRID*                736               04.3000000000E+018.0000000000E+00+
*       0.0000000000E+00               0
GRID*                737               04.4000000000E+018.0000000000E+00+
*       0.0000000000E+00               0
GRID*                738               04.5000000000E+018.0000000000E+00+
*       0.0000000000E+00               0
GRID*                739               04.6000000000E+018.0000000000E+00+
*       0.0000000000E+00               0
GRID*                740               04.7000000000E+018.0000000000E+00+
*       0.0000000000E+00               0
GRID*                741               04.8000000000E+018.0000000000E+00+
*       0.0000000000E+00               0
GRID*                742               04.9000000000E+018.0000000000E+00+
*       0.0000000000E+00               0
GRID*                743               05.0000000000E+018.0000000000E+00+
*       0.0000000000E+00               0
GRID*                744               05.1000000000E+018.0000000000E+00+
*       0.0000000000E+00               0
GRID*                745               05.2000000000E+018.0000000000E+00+
*       0.0000000000E+00               0
GRID*                746               05.3000000000E+018.0000000000E+00+
*       0.0000000000E+00               0
GRID*                747               05.4000000000E+018.0000000000E+00+
*       0.0000000000E+00               0
GRID*                748               05.5000000000E+018.0000000000E+00+
*       0.0000000000E+00               0
GRID*                749               05.6000000000E+018.0000000000E+00+
*       0.0000000000E+00               0
GRID*                750               05.7000000000E+018.0000000000E+00+
*       0.0000000000E+00               0
GRID*                751               05.8000000000E+018.0000000000E+00+
*       0.0000000000E+00               0
GRID*                752               05.9000000000E+018.0000000000E+00+
*       0.0000000000E+00               0
GRID*                753               06.0000000000E+018.0000000000E+00+
*       0.0000000000E+00               0
GRID*                754               06.1000000000E+018.0000000000E+00+
*       0.0000000000E+00               0
GRID*                755               06.2000000000E+018.0000000000E+00+
*       0.0000000000E+00               0
GRID*                756               06.3000000000E+018.0000000000E+00+
*       0.0000000000E+00               0
GRID*                757               06.4000000000E+018.0000000000E+00+
*       0.0000000000E+00               0
GRID*                758               06.5000000000E+018.0000000000E+00+
*       0.0000000000E+00               0
GRID*                759               06.6000000000E+018.0000000000E+00+
*       0.0000000000E+00               0
GRID*                760               06.7000000000E+018.0000000000E+00+
*       0.0000000000E+00               0
GRID*                761               06.8000000000E+018.0000000000E+00+
*       0.0000000000E+00               0
GRID*                762               06.9000000000E+018.0000000000E+00+
*       0.0000000000E+00               0
GRID*                763               07.0000000000E+018.0000000000E+00+
*       0.0000000000E+00               0
GRID*                764               07.1000000000E+018.0000000000E+00+
*       0.0000000000E+00               0
GRID*                765               07.2000000000E+018.0000000000E+00+
*       0.0000000000E+00               0
GRID*                766               07.3000000000E+018.0000000000E+00+
*       0.0000000000E+00               0
GRID*                767               07.4000000000E+018.0000000000E+00+
*       0.0000000000E+00               0
GRID*                768               07.5000000000E+018.0000000000E+00+
*       0.0000000000E+00               0
GRID*                769               07.6000000000E+018.0000000000E+00+
*       0.0000000000E+00               0
GRID*                770               07.7000000000E+018.0000000000E+00+
*       0.0000000000E+00               0
GRID*                771               07.8000000000E+018.0000000000E+00+
*       0.0000000000E+00               0
GRID*                772               07.9000000000E+018.0000000000E+00+
*       0.0000000000E+00               0
GRID*                773               08.0000000000E+018.0000000000E+00+
*       0.0000000000E+00               0
GRID*                774               08.1000000000E+018.0000000000E+00+
*       0.0000000000E+00               0
GRID*                775               08.2000000000E+018.0000000000E+00+
*       0.0000000000E+00               0
GRID*                776               08.3000000000E+018.0000000000E+00+
*       0.0000000000E+00               0
GRID*                777               08.4000000000E+018.0000000000E+00+
*       0.0000000000E+00               0
GRID*                778               08.5000000000E+018.0000000000E+00+
*       0.0000000000E+00               0
GRID*                779               08.6000000000E+018.0000000000E+00+
*       0.0000000000E+00               0
GRID*                780               08.7000000000E+018.0000000000E+00+
*       0.0000000000E+00               0
GRID*                781               08.8000000000E+018.0000000000E+00+
*       0.0000000000E+00               0
GRID*                782               08.9000000000E+018.0000000000E+00+
*       0.0000000000E+00               0
GRID*                783               09.0000000000E+018.0000000000E+00+
*       0.0000000000E+00               0
GRID*                784               09.1000000000E+018.0000000000E+00+
*       0.0000000000E+00               0
GRID*                785               09.2000000000E+018.0000000000E+00+
*       0.0000000000E+00               0
GRID*                786               09.3000000000E+018.0000000000E+00+
*       0.0000000000E+00               0
GRID*                787               09.4000000000E+018.0000000000E+00+
*       0.0000000000E+00               0
GRID*                788               09.5000000000E+018.0000000000E+00+
*       0.0000000000E+00               0
GRID*                789               09.6000000000E+018.0000000000E+00+
*       0.0000000000E+00               0
GRID*                790               09.7000000000E+018.0000000000E+00+
*       0.0000000000E+00               0
GRID*                791               09.8000000000E+018.0000000000E+00+
*       0.0000000000E+00               0
GRID*                792               09.9000000000E+018.0000000000E+00+
*       0.0000000000E+00               0
GRID*                793               01.0000000000E+009.0000000000E+00+
*       0.0000000000E+00               0
GRID*                794               02.0000000000E+009.0000000000E+00+
*       0.0000000000E+00               0
GRID*                795               03.0000000000E+009.0000000000E+00+
*       0.0000000000E+00               0
GRID*                796               04.0000000000E+009.0000000000E+00+
*       0.0000000000E+00               0
GRID*                797               05.0000000000E+009.0000000000E+00+
*       0.0000000000E+00               0
GRID*                798               06.0000000000E+009.0000000000E+00+
*       0.0000000000E+00               0
GRID*                799               07.0000000000E+009.0000000000E+00+
*       0.0000000000E+00               0
GRID*                800               08.0000000000E+009.0000000000E+00+
*       0.0000000000E+00               0
GRID*                801               09.0000000000E+009.0000000000E+00+
*       0.0000000000E+00               0
GRID*                802               01.0000000000E+019.0000000000E+00+
*       0.0000000000E+00               0
GRID*                803               01.1000000000E+019.0000000000E+00+
*       0.0000000000E+00               0
GRID*                804               01.2000000000E+019.0000000000E+00+
*       0.0000000000E+00               0
GRID*                805               01.3000000000E+019.0000000000E+00+
*       0.0000000000E+00               0
GRID*                806               01.4000000000E+019.0000000000E+00+
*       0.0000000000E+00               0
GRID*                807               01.5000000000E+019.0000000000E+00+
*       0.0000000000E+00               0
GRID*                808               01.6000000000E+019.0000000000E+00+
*       0.0000000000E+00               0
GRID*                809               01.7000000000E+019.0000000000E+00+
*       0.0000000000E+00               0
GRID*                810               01.8000000000E+019.0000000000E+00+
*       0.0000000000E+00               0
GRID*                811               01.9000000000E+019.0000000000E+00+
*       0.0000000000E+00               0
GRID*                812               02.0000000000E+019.0000000000E+00+
*       0.0000000000E+00               0
GRID*                813               02.1000000000E+019.0000000000E+00+
*       0.0000000000E+00               0
GRID*                814               02.2000000000E+019.0000000000E+00+
*       0.0000000000E+00               0
GRID*                815               02.3000000000E+019.0000000000E+00+
*       0.0000000000E+00               0
GRID*                816               02.4000000000E+019.0000000000E+00+
*       0.0000000000E+00               0
GRID*                817               02.5000000000E+019.0000000000E+00+
*       0.0000000000E+00               0
GRID*                818               02.6000000000E+019.0000000000E+00+
*       0.0000000000E+00               0
GRID*                819               02.7000000000E+019.0000000000E+00+
*       0.0000000000E+00               0
GRID*                820               02.8000000000E+019.0000000000E+00+
*       0.0000000000E+00               0
GRID*                821               02.9000000000E+019.0000000000E+00+
*       0.0000000000E+00               0
GRID*                822               03.0000000000E+019.0000000000E+00+
*       0.0000000000E+00               0
GRID*                823               03.1000000000E+019.0000000000E+00+
*       0.0000000000E+00               0
GRID*                824               03.2000000000E+019.0000000000E+00+
*       0.0000000000E+00               0
GRID*                825               03.3000000000E+019.0000000000E+00+
*       0.0000000000E+00               0
GRID*                826               03.4000000000E+019.0000000000E+00+
*       0.0000000000E+00               0
GRID*                827               03.5000000000E+019.0000000000E+00+
*       0.0000000000E+00               0
GRID*                828               03.6000000000E+019.0000000000E+00+
*       0.0000000000E+00               0
GRID*                829               03.7000000000E+019.0000000000E+00+
*       0.0000000000E+00               0
GRID*                830               03.8000000000E+019.0000000000E+00+
*       0.0000000000E+00               0
GRID*                831               03.9000000000E+019.0000000000E+00+
*       0.0000000000E+00               0
GRID*                832               04.0000000000E+019.0000000000E+00+
*       0.0000000000E+00               0
GRID*                833               04.1000000000E+019.0000000000E+00+
*       0.0000000000E+00               0
GRID*                834               04.2000000000E+019.0000000000E+00+
*       0.0000000000E+00               0
GRID*                835               04.3000000000E+019.0000000000E+00+
*       0.0000000000E+00               0
GRID*                836               04.4000000000E+019.0000000000E+00+
*       0.0000000000E+00               0
GRID*                837               04.5000000000E+019.0000000000E+00+
*       0.0000000000E+00               0
GRID*                838               04.6000000000E+019.0000000000E+00+
*       0.0000000000E+00               0
GRID*                839               04.7000000000E+019.0000000000E+00+
*       0.0000000000E+00               0
GRID*                840               04.8000000000E+019.0000000000E+00+
*       0.0000000000E+00               0
GRID*                841               04.9000000000E+019.0000000000E+00+
*       0.0000000000E+00               0
GRID*                842               05.0000000000E+019.0000000000E+00+
*       0.0000000000E+00               0
GRID*                843               05.1000000000E+019.0000000000E+00+
*       0.0000000000E+00               0
GRID*                844               05.2000000000E+019.0000000000E+00+
*       0.0000000000E+00               0
GRID*                845               05.3000000000E+019.0000000000E+00+
*       0.0000000000E+00               0
GRID*                846               05.4000000000E+019.0000000000E+00+
*       0.0000000000E+00               0
GRID*                847               05.5000000000E+019.0000000000E+00+
*       0.0000000000E+00               0
GRID*                848               05.6000000000E+019.0000000000E+00+
*       0.0000000000E+00               0
GRID*                849               05.7000000000E+019.0000000000E+00+
*       0.0000000000E+00               0
GRID*                850               05.8000000000E+019.0000000000E+00+
*       0.0000000000E+00               0
GRID*                851               05.9000000000E+019.0000000000E+00+
*       0.0000000000E+00               0
GRID*                852               06.0000000000E+019.0000000000E+00+
*       0.0000000000E+00               0
GRID*                853               06.1000000000E+019.0000000000E+00+
*       0.0000000000E+00               0
GRID*                854               06.2000000000E+019.0000000000E+00+
*       0.0000000000E+00               0
GRID*                855               06.3000000000E+019.0000000000E+00+
*       0.0000000000E+00               0
GRID*                856               06.4000000000E+019.0000000000E+00+
*       0.0000000000E+00               0
GRID*                857               06.5000000000E+019.0000000000E+00+
*       0.0000000000E+00               0
GRID*                858               06.6000000000E+019.0000000000E+00+
*       0.0000000000E+00               0
GRID*                859               06.7000000000E+019.0000000000E+00+
*       0.0000000000E+00               0
GRID*                860               06.8000000000E+019.0000000000E+00+
*       0.0000000000E+00               0
GRID*                861               06.9000000000E+019.0000000000E+00+
*       0.0000000000E+00               0
GRID*                862               07.0000000000E+019.0000000000E+00+
*       0.0000000000E+00               0
GRID*                863               07.1000000000E+019.0000000000E+00+
*       0.0000000000E+00               0
GRID*                864               07.2000000000E+019.0000000000E+00+
*       0.0000000000E+00               0
GRID*                865               07.3000000000E+019.0000000000E+00+
*       0.0000000000E+00               0
GRID*                866               07.4000000000E+019.0000000000E+00+
*       0.0000000000E+00               0
GRID*                867               07.5000000000E+019.0000000000E+00+
*       0.0000000000E+00               0
GRID*                868               07.6000000000E+019.0000000000E+00+
*       0.0000000000E+00               0
GRID*                869               07.7000000000E+019.0000000000E+00+
*       0.0000000000E+00               0
GRID*                870               07.8000000000E+019.0000000000E+00+
*       0.0000000000E+00               0
GRID*                871               07.9000000000E+019.0000000000E+00+
*       0.0000000000E+00               0
GRID*                872               08.0000000000E+019.0000000000E+00+
*       0.0000000000E+00               0
GRID*                873               08.1000000000E+019.0000000000E+00+
*       0.0000000000E+00               0
GRID*                874               08.2000000000E+019.0000000000E+00+
*       0.0000000000E+00               0
GRID*                875               08.3000000000E+019.0000000000E+00+
*       0.0000000000E+00               0
GRID*                876               08.4000000000E+019.0000000000E+00+
*       0.0000000000E+00               0
GRID*                877               08.5000000000E+019.0000000000E+00+
*       0.0000000000E+00               0
GRID*                878               08.6000000000E+019.0000000000E+00+
*       0.0000000000E+00               0
GRID*                879               08.7000000000E+019.0000000000E+00+
*       0.0000000000E+00               0
GRID*                880               08.8000000000E+019.0000000000E+00+
*       0.0000000000E+00               0
GRID*                881               08.9000000000E+019.0000000000E+00+
*       0.0000000000E+00               0
GRID*                882               09.0000000000E+019.0000000000E+00+
*       0.0000000000E+00               0
GRID*                883               09.1000000000E+019.0000000000E+00+
*       0.0000000000E+00               0
GRID*                884               09.2000000000E+019.0000000000E+00+
*       0.0000000000E+00               0
GRID*                885               09.3000000000E+019.0000000000E+00+
*       0.0000000000E+00               0
GRID*                886               09.4000000000E+019.0000000000E+00+
*       0.0000000000E+00               0
GRID*                887               09.5000000000E+019.0000000000E+00+
*       0.0000000000E+00               0
GRID*                888               09.6000000000E+019.0000000000E+00+
*       0.0000000000E+00               0
GRID*                889               09.7000000000E+019.0000000000E+00+
*       0.0000000000E+00               0
GRID*                890               09.8000000000E+019.0000000000E+00+
*       0.0000000000E+00               0
GRID*                891               09.9000000000E+019.0000000000E+00+
*       0.0000000000E+00               0
$*
$* ELEMENT CARDS
$*
$*  NX Mesh Collector: ThinShell(1)
$*  NX Mesh: 2d_mesh(1)
CQUAD4         1       1       1     100     101       2
CQUAD4         2       1       2     101     102       3
CQUAD4         3       1       3     102     103       4
CQUAD4         4       1       4     103     104       5
CQUAD4         5       1       5     104     105       6
CQUAD4         6       1       6     105     106       7
CQUAD4         7       1       7     106     107       8
CQUAD4         8       1       8     107     108       9
CQUAD4         9       1       9     108     109      10
CQUAD4        10       1      10     109     110      11
CQUAD4        11       1      11     110     111      12
CQUAD4        12       1      12     111     112      13
CQUAD4        13       1      13     112     113      14
CQUAD4        14       1      14     113     114      15
CQUAD4        15       1      15     114     115      16
CQUAD4        16       1      16     115     116      17
CQUAD4        17       1      17     116     117      18
CQUAD4        18       1      18     117     118      19
CQUAD4        19       1      19     118     119      20
CQUAD4        20       1      20     119     120      21
CQUAD4        21       1      21     120     121      22
CQUAD4        22       1      22     121     122      23
CQUAD4        23       1      23     122     123      24
CQUAD4        24       1      24     123     124      25
CQUAD4        25       1      25     124     125      26
CQUAD4        26       1      26     125     126      27
CQUAD4        27       1      27     126     127      28
CQUAD4        28       1      28     127     128      29
CQUAD4        29       1      29     128     129      30
CQUAD4        30       1      30     129     130      31
CQUAD4        31       1      31     130     131      32
CQUAD4        32       1      32     131     132      33
CQUAD4        33       1      33     132     133      34
CQUAD4        34       1      34     133     134      35
CQUAD4        35       1      35     134     135      36
CQUAD4        36       1      36     135     136      37
CQUAD4        37       1      37     136     137      38
CQUAD4        38       1      38     137     138      39
CQUAD4        39       1      39     138     139      40
CQUAD4        40       1      40     139     140      41
CQUAD4        41       1      41     140     141      42
CQUAD4        42       1      42     141     142      43
CQUAD4        43       1      43     142     143      44
CQUAD4        44       1      44     143     144      45
CQUAD4        45       1      45     144     145      46
CQUAD4        46       1      46     145     146      47
CQUAD4        47       1      47     146     147      48
CQUAD4        48       1      48     147     148      49
CQUAD4        49       1      49     148     149      50
CQUAD4        50       1      50     149     150      51
CQUAD4        51       1      51     150     151      52
CQUAD4        52       1      52     151     152      53
CQUAD4        53       1      53     152     153      54
CQUAD4        54       1      54     153     154      55
CQUAD4        55       1      55     154     155      56
CQUAD4        56       1      56     155     156      57
CQUAD4        57       1      57     156     157      58
CQUAD4        58       1      58     157     158      59
CQUAD4        59       1      59     158     159      60
CQUAD4        60       1      60     159     160      61
CQUAD4        61       1      61     160     161      62
CQUAD4        62       1      62     161     162      63
CQUAD4        63       1      63     162     163      64
CQUAD4        64       1      64     163     164      65
CQUAD4        65       1      65     164     165      66
CQUAD4        66       1      66     165     166      67
CQUAD4        67       1      67     166     167      68
CQUAD4        68       1      68     167     168      69
CQUAD4        69       1      69     168     169      70
CQUAD4        70       1      70     169     170      71
CQUAD4        71       1      71     170     171      72
CQUAD4        72       1      72     171     172      73
CQUAD4        73       1      73     172     173      74
CQUAD4        74       1      74     173     174      75
CQUAD4        75       1      75     174     175      76
CQUAD4        76       1      76     175     176      77
CQUAD4        77       1      77     176     177      78
CQUAD4        78       1      78     177     178      79
CQUAD4        79       1      79     178     179      80
CQUAD4        80       1      80     179     180      81
CQUAD4        81       1      81     180     181      82
CQUAD4        82       1      82     181     182      83
CQUAD4        83       1      83     182     183      84
CQUAD4        84       1      84     183     184      85
CQUAD4        85       1      85     184     185      86
CQUAD4        86       1      86     185     186      87
CQUAD4        87       1      87     186     187      88
CQUAD4        88       1      88     187     188      89
CQUAD4        89       1      89     188     189      90
CQUAD4        90       1      90     189     190      91
CQUAD4        91       1      91     190     191      92
CQUAD4        92       1      92     191     192      93
CQUAD4        93       1      93     192     193      94
CQUAD4        94       1      94     193     194      95
CQUAD4        95       1      95     194     195      96
CQUAD4        96       1      96     195     196      97
CQUAD4        97       1      97     196     197      98
CQUAD4        98       1      98     197     198      99
CQUAD4        99       1     100     199     200     101
CQUAD4       100       1     101     200     201     102
CQUAD4       101       1     102     201     202     103
CQUAD4       102       1     103     202     203     104
CQUAD4       103       1     104     203     204     105
CQUAD4       104       1     105     204     205     106
CQUAD4       105       1     106     205     206     107
CQUAD4       106       1     107     206     207     108
CQUAD4       107       1     108     207     208     109
CQUAD4       108       1     109     208     209     110
CQUAD4       109       1     110     209     210     111
CQUAD4       110       1     111     210     211     112
CQUAD4       111       1     112     211     212     113
CQUAD4       112       1     113     212     213     114
CQUAD4       113       1     114     213     214     115
CQUAD4       114       1     115     214     215     116
CQUAD4       115       1     116     215     216     117
CQUAD4       116       1     117     216     217     118
CQUAD4       117       1     118     217     218     119
CQUAD4       118       1     119     218     219     120
CQUAD4       119       1     120     219     220     121
CQUAD4       120       1     121     220     221     122
CQUAD4       121       1     122     221     222     123
CQUAD4       122       1     123     222     223     124
CQUAD4       123       1     124     223     224     125
CQUAD4       124       1     125     224     225     126
CQUAD4       125       1     126     225     226     127
CQUAD4       126       1     127     226     227     128
CQUAD4       127       1     128     227     228     129
CQUAD4       128       1     129     228     229     130
CQUAD4       129       1     130     229     230     131
CQUAD4       130       1     131     230     231     132
CQUAD4       131       1     132     231     232     133
CQUAD4       132       1     133     232     233     134
CQUAD4       133       1     134     233     234     135
CQUAD4       134       1     135     234     235     136
CQUAD4       135       1     136     235     236     137
CQUAD4       136       1     137     236     237     138
CQUAD4       137       1     138     237     238     139
CQUAD4       138       1     139     238     239     140
CQUAD4       139       1     140     239     240     141
CQUAD4       140       1     141     240     241     142
CQUAD4       141       1     142     241     242     143
CQUAD4       142       1     143     242     243     144
CQUAD4       143       1     144     243     244     145
CQUAD4       144       1     145     244     245     146
CQUAD4       145       1     146     245     246     147
CQUAD4       146       1     147     246     247     148
CQUAD4       147       1     148     247     248     149
CQUAD4       148       1     149     248     249     150
CQUAD4       149       1     150     249     250     151
CQUAD4       150       1     151     250     251     152
CQUAD4       151       1     152     251     252     153
CQUAD4       152       1     153     252     253     154
CQUAD4       153       1     154     253     254     155
CQUAD4       154       1     155     254     255     156
CQUAD4       155       1     156     255     256     157
CQUAD4       156       1     157     256     257     158
CQUAD4       157       1     158     257     258     159
CQUAD4       158       1     159     258     259     160
CQUAD4       159       1     160     259     260     161
CQUAD4       160       1     161     260     261     162
CQUAD4       161       1     162     261     262     163
CQUAD4       162       1     163     262     263     164
CQUAD4       163       1     164     263     264     165
CQUAD4       164       1     165     264     265     166
CQUAD4       165       1     166     265     266     167
CQUAD4       166       1     167     266     267     168
CQUAD4       167       1     168     267     268     169
CQUAD4       168       1     169     268     269     170
CQUAD4       169       1     170     269     270     171
CQUAD4       170       1     171     270     271     172
CQUAD4       171       1     172     271     272     173
CQUAD4       172       1     173     272     273     174
CQUAD4       173       1     174     273     274     175
CQUAD4       174       1     175     274     275     176
CQUAD4       175       1     176     275     276     177
CQUAD4       176       1     177     276     277     178
CQUAD4       177       1     178     277     278     179
CQUAD4       178       1     179     278     279     180
CQUAD4       179       1     180     279     280     181
CQUAD4       180       1     181     280     281     182
CQUAD4       181       1     182     281     282     183
CQUAD4       182       1     183     282     283     184
CQUAD4       183       1     184     283     284     185
CQUAD4       184       1     185     284     285     186
CQUAD4       185       1     186     285     286     187
CQUAD4       186       1     187     286     287     188
CQUAD4       187       1     188     287     288     189
CQUAD4       188       1     189     288     289     190
CQUAD4       189       1     190     289     290     191
CQUAD4       190       1     191     290     291     192
CQUAD4       191       1     192     291     292     193
CQUAD4       192       1     193     292     293     194
CQUAD4       193       1     194     293     294     195
CQUAD4       194       1     195     294     295     196
CQUAD4       195       1     196     295     296     197
CQUAD4       196       1     197     296     297     198
CQUAD4       197       1     199     298     299     200
CQUAD4       198       1     200     299     300     201
CQUAD4       199       1     201     300     301     202
CQUAD4       200       1     202     301     302     203
CQUAD4       201       1     203     302     303     204
CQUAD4       202       1     204     303     304     205
CQUAD4       203       1     205     304     305     206
CQUAD4       204       1     206     305     306     207
CQUAD4       205       1     207     306     307     208
CQUAD4       206       1     208     307     308     209
CQUAD4       207       1     209     308     309     210
CQUAD4       208       1     210     309     310     211
CQUAD4       209       1     211     310     311     212
CQUAD4       210       1     212     311     312     213
CQUAD4       211       1     213     312     313     214
CQUAD4       212       1     214     313     314     215
CQUAD4       213       1     215     314     315     216
CQUAD4       214       1     216     315     316     217
CQUAD4       215       1     217     316     317     218
CQUAD4       216       1     218     317     318     219
CQUAD4       217       1     219     318     319     220
CQUAD4       218       1     220     319     320     221
CQUAD4       219       1     221     320     321     222
CQUAD4       220       1     222     321     322     223
CQUAD4       221       1     223     322     323     224
CQUAD4       222       1     224     323     324     225
CQUAD4       223       1     225     324     325     226
CQUAD4       224       1     226     325     326     227
CQUAD4       225       1     227     326     327     228
CQUAD4       226       1     228     327     328     229
CQUAD4       227       1     229     328     329     230
CQUAD4       228       1     230     329     330     231
CQUAD4       229       1     231     330     331     232
CQUAD4       230       1     232     331     332     233
CQUAD4       231       1     233     332     333     234
CQUAD4       232       1     234     333     334     235
CQUAD4       233       1     235     334     335     236
CQUAD4       234       1     236     335     336     237
CQUAD4       235       1     237     336     337     238
CQUAD4       236       1     238     337     338     239
CQUAD4       237       1     239     338     339     240
CQUAD4       238       1     240     339     340     241
CQUAD4       239       1     241     340     341     242
CQUAD4       240       1     242     341     342     243
CQUAD4       241       1     243     342     343     244
CQUAD4       242       1     244     343     344     245
CQUAD4       243       1     245     344     345     246
CQUAD4       244       1     246     345     346     247
CQUAD4       245       1     247     346     347     248
CQUAD4       246       1     248     347     348     249
CQUAD4       247       1     249     348     349     250
CQUAD4       248       1     250     349     350     251
CQUAD4       249       1     251     350     351     252
CQUAD4       250       1     252     351     352     253
CQUAD4       251       1     253     352     353     254
CQUAD4       252       1     254     353     354     255
CQUAD4       253       1     255     354     355     256
CQUAD4       254       1     256     355     356     257
CQUAD4       255       1     257     356     357     258
CQUAD4       256       1     258     357     358     259
CQUAD4       257       1     259     358     359     260
CQUAD4       258       1     260     359     360     261
CQUAD4       259       1     261     360     361     262
CQUAD4       260       1     262     361     362     263
CQUAD4       261       1     263     362     363     264
CQUAD4       262       1     264     363     364     265
CQUAD4       263       1     265     364     365     266
CQUAD4       264       1     266     365     366     267
CQUAD4       265       1     267     366     367     268
CQUAD4       266       1     268     367     368     269
CQUAD4       267       1     269     368     369     270
CQUAD4       268       1     270     369     370     271
CQUAD4       269       1     271     370     371     272
CQUAD4       270       1     272     371     372     273
CQUAD4       271       1     273     372     373     274
CQUAD4       272       1     274     373     374     275
CQUAD4       273       1     275     374     375     276
CQUAD4       274       1     276     375     376     277
CQUAD4       275       1     277     376     377     278
CQUAD4       276       1     278     377     378     279
CQUAD4       277       1     279     378     379     280
CQUAD4       278       1     280     379     380     281
CQUAD4       279       1     281     380     381     282
CQUAD4       280       1     282     381     382     283
CQUAD4       281       1     283     382     383     284
CQUAD4       282       1     284     383     384     285
CQUAD4       283       1     285     384     385     286
CQUAD4       284       1     286     385     386     287
CQUAD4       285       1     287     386     387     288
CQUAD4       286       1     288     387     388     289
CQUAD4       287       1     289     388     389     290
CQUAD4       288       1     290     389     390     291
CQUAD4       289       1     291     390     391     292
CQUAD4       290       1     292     391     392     293
CQUAD4       291       1     293     392     393     294
CQUAD4       292       1     294     393     394     295
CQUAD4       293       1     295     394     395     296
CQUAD4       294       1     296     395     396     297
CQUAD4       295       1     298     397     398     299
CQUAD4       296       1     299     398     399     300
CQUAD4       297       1     300     399     400     301
CQUAD4       298       1     301     400     401     302
CQUAD4       299       1     302     401     402     303
CQUAD4       300       1     303     402     403     304
CQUAD4       301       1     304     403     404     305
CQUAD4       302       1     305     404     405     306
CQUAD4       303       1     306     405     406     307
CQUAD4       304       1     307     406     407     308
CQUAD4       305       1     308     407     408     309
CQUAD4       306       1     309     408     409     310
CQUAD4       307       1     310     409     410     311
CQUAD4       308       1     311     410     411     312
CQUAD4       309       1     312     411     412     313
CQUAD4       310       1     313     412     413     314
CQUAD4       311       1     314     413     414     315
CQUAD4       312       1     315     414     415     316
CQUAD4       313       1     316     415     416     317
CQUAD4       314       1     317     416     417     318
CQUAD4       315       1     318     417     418     319
CQUAD4       316       1     319     418     419     320
CQUAD4       317       1     320     419     420     321
CQUAD4       318       1     321     420     421     322
CQUAD4       319       1     322     421     422     323
CQUAD4       320       1     323     422     423     324
CQUAD4       321       1     324     423     424     325
CQUAD4       322       1     325     424     425     326
CQUAD4       323       1     326     425     426     327
CQUAD4       324       1     327     426     427     328
CQUAD4       325       1     328     427     428     329
CQUAD4       326       1     329     428     429     330
CQUAD4       327       1     330     429     430     331
CQUAD4       328       1     331     430     431     332
CQUAD4       329       1     332     431     432     333
CQUAD4       330       1     333     432     433     334
CQUAD4       331       1     334     433     434     335
CQUAD4       332       1     335     434     435     336
CQUAD4       333       1     336     435     436     337
CQUAD4       334       1     337     436     437     338
CQUAD4       335       1     338     437     438     339
CQUAD4       336       1     339     438     439     340
CQUAD4       337       1     340     439     440     341
CQUAD4       338       1     341     440     441     342
CQUAD4       339       1     342     441     442     343
CQUAD4       340       1     343     442     443     344
CQUAD4       341       1     344     443     444     345
CQUAD4       342       1     345     444     445     346
CQUAD4       343       1     346     445     446     347
CQUAD4       344       1     347     446     447     348
CQUAD4       345       1     348     447     448     349
CQUAD4       346       1     349     448     449     350
CQUAD4       347       1     350     449     450     351
CQUAD4       348       1     351     450     451     352
CQUAD4       349       1     352     451     452     353
CQUAD4       350       1     353     452     453     354
CQUAD4       351       1     354     453     454     355
CQUAD4       352       1     355     454     455     356
CQUAD4       353       1     356     455     456     357
CQUAD4       354       1     357     456     457     358
CQUAD4       355       1     358     457     458     359
CQUAD4       356       1     359     458     459     360
CQUAD4       357       1     360     459     460     361
CQUAD4       358       1     361     460     461     362
CQUAD4       359       1     362     461     462     363
CQUAD4       360       1     363     462     463     364
CQUAD4       361       1     364     463     464     365
CQUAD4       362       1     365     464     465     366
CQUAD4       363       1     366     465     466     367
CQUAD4       364       1     367     466     467     368
CQUAD4       365       1     368     467     468     369
CQUAD4       366       1     369     468     469     370
CQUAD4       367       1     370     469     470     371
CQUAD4       368       1     371     470     471     372
CQUAD4       369       1     372     471     472     373
CQUAD4       370       1     373     472     473     374
CQUAD4       371       1     374     473     474     375
CQUAD4       372       1     375     474     475     376
CQUAD4       373       1     376     475     476     377
CQUAD4       374       1     377     476     477     378
CQUAD4       375       1     378     477     478     379
CQUAD4       376       1     379     478     479     380
CQUAD4       377       1     380     479     480     381
CQUAD4       378       1     381     480     481     382
CQUAD4       379       1     382     481     482     383
CQUAD4       380       1     383     482     483     384
CQUAD4       381       1     384     483     484     385
CQUAD4       382       1     385     484     485     386
CQUAD4       383       1     386     485     486     387
CQUAD4       384       1     387     486     487     388
CQUAD4       385       1     388     487     488     389
CQUAD4       386       1     389     488     489     390
CQUAD4       387       1     390     489     490     391
CQUAD4       388       1     391     490     491     392
CQUAD4       389       1     392     491     492     393
CQUAD4       390       1     393     492     493     394
CQUAD4       391       1     394     493     494     395
CQUAD4       392       1     395     494     495     396
CQUAD4       393       1     397     496     497     398
CQUAD4       394       1     398     497     498     399
CQUAD4       395       1     399     498     499     400
CQUAD4       396       1     400     499     500     401
CQUAD4       397       1     401     500     501     402
CQUAD4       398       1     402     501     502     403
CQUAD4       399       1     403     502     503     404
CQUAD4       400       1     404     503     504     405
CQUAD4       401       1     405     504     505     406
CQUAD4       402       1     406     505     506     407
CQUAD4       403       1     407     506     507     408
CQUAD4       404       1     408     507     508     409
CQUAD4       405       1     409     508     509     410
CQUAD4       406       1     410     509     510     411
CQUAD4       407       1     411     510     511     412
CQUAD4       408       1     412     511     512     413
CQUAD4       409       1     413     512     513     414
CQUAD4       410       1     414     513     514     415
CQUAD4       411       1     415     514     515     416
CQUAD4       412       1     416     515     516     417
CQUAD4       413       1     417     516     517     418
CQUAD4       414       1     418     517     518     419
CQUAD4       415       1     419     518     519     420
CQUAD4       416       1     420     519     520     421
CQUAD4       417       1     421     520     521     422
CQUAD4       418       1     422     521     522     423
CQUAD4       419       1     423     522     523     424
CQUAD4       420       1     424     523     524     425
CQUAD4       421       1     425     524     525     426
CQUAD4       422       1     426     525     526     427
CQUAD4       423       1     427     526     527     428
CQUAD4       424       1     428     527     528     429
CQUAD4       425       1     429     528     529     430
CQUAD4       426       1     430     529     530     431
CQUAD4       427       1     431     530     531     432
CQUAD4       428       1     432     531     532     433
CQUAD4       429       1     433     532     533     434
CQUAD4       430       1     434     533     534     435
CQUAD4       431       1     435     534     535     436
CQUAD4       432       1     436     535     536     437
CQUAD4       433       1     437     536     537     438
CQUAD4       434       1     438     537     538     439
CQUAD4       435       1     439     538     539     440
CQUAD4       436       1     440     539     540     441
CQUAD4       437       1     441     540     541     442
CQUAD4       438       1     442     541     542     443
CQUAD4       439       1     443     542     543     444
CQUAD4       440       1     444     543     544     445
CQUAD4       441       1     445     544     545     446
CQUAD4       442       1     446     545     546     447
CQUAD4       443       1     447     546     547     448
CQUAD4       444       1     448     547     548     449
CQUAD4       445       1     449     548     549     450
CQUAD4       446       1     450     549     550     451
CQUAD4       447       1     451     550     551     452
CQUAD4       448       1     452     551     552     453
CQUAD4       449       1     453     552     553     454
CQUAD4       450       1     454     553     554     455
CQUAD4       451       1     455     554     555     456
CQUAD4       452       1     456     555     556     457
CQUAD4       453       1     457     556     557     458
CQUAD4       454       1     458     557     558     459
CQUAD4       455       1     459     558     559     460
CQUAD4       456       1     460     559     560     461
CQUAD4       457       1     461     560     561     462
CQUAD4       458       1     462     561     562     463
CQUAD4       459       1     463     562     563     464
CQUAD4       460       1     464     563     564     465
CQUAD4       461       1     465     564     565     466
CQUAD4       462       1     466     565     566     467
CQUAD4       463       1     467     566     567     468
CQUAD4       464       1     468     567     568     469
CQUAD4       465       1     469     568     569     470
CQUAD4       466       1     470     569     570     471
CQUAD4       467       1     471     570     571     472
CQUAD4       468       1     472     571     572     473
CQUAD4       469       1     473     572     573     474
CQUAD4       470       1     474     573     574     475
CQUAD4       471       1     475     574     575     476
CQUAD4       472       1     476     575     576     477
CQUAD4       473       1     477     576     577     478
CQUAD4       474       1     478     577     578     479
CQUAD4       475       1     479     578     579     480
CQUAD4       476       1     480     579     580     481
CQUAD4       477       1     481     580     581     482
CQUAD4       478       1     482     581     582     483
CQUAD4       479       1     483     582     583     484
CQUAD4       480       1     484     583     584     485
CQUAD4       481       1     485     584     585     486
CQUAD4       482       1     486     585     586     487
CQUAD4       483       1     487     586     587     488
CQUAD4       484       1     488     587     588     489
CQUAD4       485       1     489     588     589     490
CQUAD4       486       1     490     589     590     491
CQUAD4       487       1     491     590     591     492
CQUAD4       488       1     492     591     592     493
CQUAD4       489       1     493     592     593     494
CQUAD4       490       1     494     593     594     495
CQUAD4       491       1     496     595     596     497
CQUAD4       492       1     497     596     597     498
CQUAD4       493       1     498     597     598     499
CQUAD4       494       1     499     598     599     500
CQUAD4       495       1     500     599     600     501
CQUAD4       496       1     501     600     601     502
CQUAD4       497       1     502     601     602     503
CQUAD4       498       1     503     602     603     504
CQUAD4       499       1     504     603     604     505
CQUAD4       500       1     505     604     605     506
CQUAD4       501       1     506     605     606     507
CQUAD4       502       1     507     606     607     508
CQUAD4       503       1     508     607     608     509
CQUAD4       504       1     509     608     609     510
CQUAD4       505       1     510     609     610     511
CQUAD4       506       1     511     610     611     512
CQUAD4       507       1     512     611     612     513
CQUAD4       508       1     513     612     613     514
CQUAD4       509       1     514     613     614     515
CQUAD4       510       1     515     614     615     516
CQUAD4       511       1     516     615     616     517
CQUAD4       512       1     517     616     617     518
CQUAD4       513       1     518     617     618     519
CQUAD4       514       1     519     618     619     520
CQUAD4       515       1     520     619     620     521
CQUAD4       516       1     521     620     621     522
CQUAD4       517       1     522     621     622     523
CQUAD4       518       1     523     622     623     524
CQUAD4       519       1     524     623     624     525
CQUAD4       520       1     525     624     625     526
CQUAD4       521       1     526     625     626     527
CQUAD4       522       1     527     626     627     528
CQUAD4       523       1     528     627     628     529
CQUAD4       524       1     529     628     629     530
CQUAD4       525       1     530     629     630     531
CQUAD4       526       1     531     630     631     532
CQUAD4       527       1     532     631     632     533
CQUAD4       528       1     533     632     633     534
CQUAD4       529       1     534     633     634     535
CQUAD4       530       1     535     634     635     536
CQUAD4       531       1     536     635     636     537
CQUAD4       532       1     537     636     637     538
CQUAD4       533       1     538     637     638     539
CQUAD4       534       1     539     638     639     540
CQUAD4       535       1     540     639     640     541
CQUAD4       536       1     541     640     641     542
CQUAD4       537       1     542     641     642     543
CQUAD4       538       1     543     642     643     544
CQUAD4       539       1     544     643     644     545
CQUAD4       540       1     545     644     645     546
CQUAD4       541       1     546     645     646     547
CQUAD4       542       1     547     646     647     548
CQUAD4       543       1     548     647     648     549
CQUAD4       544       1     549     648     649     550
CQUAD4       545       1     550     649     650     551
CQUAD4       546       1     551     650     651     552
CQUAD4       547       1     552     651     652     553
CQUAD4       548       1     553     652     653     554
CQUAD4       549       1     554     653     654     555
CQUAD4       550       1     555     654     655     556
CQUAD4       551       1     556     655     656     557
CQUAD4       552       1     557     656     657     558
CQUAD4       553       1     558     657     658     559
CQUAD4       554       1     559     658     659     560
CQUAD4       555       1     560     659     660     561
CQUAD4       556       1     561     660     661     562
CQUAD4       557       1     562     661     662     563
CQUAD4       558       1     563     662     663     564
CQUAD4       559       1     564     663     664     565
CQUAD4       560       1     565     664     665     566
CQUAD4       561       1     566     665     666     567
CQUAD4       562       1     567     666     667     568
CQUAD4       563       1     568     667     668     569
CQUAD4       564       1     569     668     669     570
CQUAD4       565       1     570     669     670     571
CQUAD4       566       1     571     670     671     572
CQUAD4       567       1     572     671     672     573
CQUAD4       568       1     573     672     673     574
CQUAD4       569       1     574     673     674     575
CQUAD4       570       1     575     674     675     576
CQUAD4       571       1     576     675     676     577
CQUAD4       572       1     577     676     677     578
CQUAD4       573       1     578     677     678     579
CQUAD4       574       1     579     678     679     580
CQUAD4       575       1     580     679     680     581
CQUAD4       576       1     581     680     681     582
CQUAD4       577       1     582     681     682     583
CQUAD4       578       1     583     682     683     584
CQUAD4       579       1     584     683     684     585
CQUAD4       580       1     585     684     685     586
CQUAD4       581       1     586     685     686     587
CQUAD4       582       1     587     686     687     588
CQUAD4       583       1     588     687     688     589
CQUAD4       584       1     589     688     689     590
CQUAD4       585       1     590     689     690     591
CQUAD4       586       1     591     690     691     592
CQUAD4       587       1     592     691     692     593
CQUAD4       588       1     593     692     693     594
CQUAD4       589       1     595     694     695     596
CQUAD4       590       1     596     695     696     597
CQUAD4       591       1     597     696     697     598
CQUAD4       592       1     598     697     698     599
CQUAD4       593       1     599     698     699     600
CQUAD4       594       1     600     699     700     601
CQUAD4       595       1     601     700     701     602
CQUAD4       596       1     602     701     702     603
CQUAD4       597       1     603     702     703     604
CQUAD4       598       1     604     703     704     605
CQUAD4       599       1     605     704     705     606
CQUAD4       600       1     606     705     706     607
CQUAD4       601       1     607     706     707     608
CQUAD4       602       1     608     707     708     609
CQUAD4       603       1     609     708     709     610
CQUAD4       604       1     610     709     710     611
CQUAD4       605       1     611     710     711     612
CQUAD4       606       1     612     711     712     613
CQUAD4       607       1     613     712     713     614
CQUAD4       608       1     614     713     714     615
CQUAD4       609       1     615     714     715     616
CQUAD4       610       1     616     715     716     617
CQUAD4       611       1     617     716     717     618
CQUAD4       612       1     618     717     718     619
CQUAD4       613       1     619     718     719     620
CQUAD4       614       1     620     719     720     621
CQUAD4       615       1     621     720     721     622
CQUAD4       616       1     622     721     722     623
CQUAD4       617       1     623     722     723     624
CQUAD4       618       1     624     723     724     625
CQUAD4       619       1     625     724     725     626
CQUAD4       620       1     626     725     726     627
CQUAD4       621       1     627     726     727     628
CQUAD4       622       1     628     727     728     629
CQUAD4       623       1     629     728     729     630
CQUAD4       624       1     630     729     730     631
CQUAD4       625       1     631     730     731     632
CQUAD4       626       1     632     731     732     633
CQUAD4       627       1     633     732     733     634
CQUAD4       628       1     634     733     734     635
CQUAD4       629       1     635     734     735     636
CQUAD4       630       1     636     735     736     637
CQUAD4       631       1     637     736     737     638
CQUAD4       632       1     638     737     738     639
CQUAD4       633       1     639     738     739     640
CQUAD4       634       1     640     739     740     641
CQUAD4       635       1     641     740     741     642
CQUAD4       636       1     642     741     742     643
CQUAD4       637       1     643     742     743     644
CQUAD4       638       1     644     743     744     645
CQUAD4       639       1     645     744     745     646
CQUAD4       640       1     646     745     746     647
CQUAD4       641       1     647     746     747     648
CQUAD4       642       1     648     747     748     649
CQUAD4       643       1     649     748     749     650
CQUAD4       644       1     650     749     750     651
CQUAD4       645       1     651     750     751     652
CQUAD4       646       1     652     751     752     653
CQUAD4       647       1     653     752     753     654
CQUAD4       648       1     654     753     754     655
CQUAD4       649       1     655     754     755     656
CQUAD4       650       1     656     755     756     657
CQUAD4       651       1     657     756     757     658
CQUAD4       652       1     658     757     758     659
CQUAD4       653       1     659     758     759     660
CQUAD4       654       1     660     759     760     661
CQUAD4       655       1     661     760     761     662
CQUAD4       656       1     662     761     762     663
CQUAD4       657       1     663     762     763     664
CQUAD4       658       1     664     763     764     665
CQUAD4       659       1     665     764     765     666
CQUAD4       660       1     666     765     766     667
CQUAD4       661       1     667     766     767     668
CQUAD4       662       1     668     767     768     669
CQUAD4       663       1     669     768     769     670
CQUAD4       664       1     670     769     770     671
CQUAD4       665       1     671     770     771     672
CQUAD4       666       1     672     771     772     673
CQUAD4       667       1     673     772     773     674
CQUAD4       668       1     674     773     774     675
CQUAD4       669       1     675     774     775     676
CQUAD4       670       1     676     775     776     677
CQUAD4       671       1     677     776     777     678
CQUAD4       672       1     678     777     778     679
CQUAD4       673       1     679     778     779     680
CQUAD4       674       1     680     779     780     681
CQUAD4       675       1     681     780     781     682
CQUAD4       676       1     682     781     782     683
CQUAD4       677       1     683     782     783     684
CQUAD4       678       1     684     783     784     685
CQUAD4       679       1     685     784     785     686
CQUAD4       680       1     686     785     786     687
CQUAD4       681       1     687     786     787     688
CQUAD4       682       1     688     787     788     689
CQUAD4       683       1     689     788     789     690
CQUAD4       684       1     690     789     790     691
CQUAD4       685       1     691     790     791     692
CQUAD4       686       1     692     791     792     693
CQUAD4       687       1     694     793     794     695
CQUAD4       688       1     695     794     795     696
CQUAD4       689       1     696     795     796     697
CQUAD4       690       1     697     796     797     698
CQUAD4       691       1     698     797     798     699
CQUAD4       692       1     699     798     799     700
CQUAD4       693       1     700     799     800     701
CQUAD4       694       1     701     800     801     702
CQUAD4       695       1     702     801     802     703
CQUAD4       696       1     703     802     803     704
CQUAD4       697       1     704     803     804     705
CQUAD4       698       1     705     804     805     706
CQUAD4       699       1     706     805     806     707
CQUAD4       700       1     707     806     807     708
CQUAD4       701       1     708     807     808     709
CQUAD4       702       1     709     808     809     710
CQUAD4       703       1     710     809     810     711
CQUAD4       704       1     711     810     811     712
CQUAD4       705       1     712     811     812     713
CQUAD4       706       1     713     812     813     714
CQUAD4       707       1     714     813     814     715
CQUAD4       708       1     715     814     815     716
CQUAD4       709       1     716     815     816     717
CQUAD4       710       1     717     816     817     718
CQUAD4       711       1     718     817     818     719
CQUAD4       712       1     719     818     819     720
CQUAD4       713       1     720     819     820     721
CQUAD4       714       1     721     820     821     722
CQUAD4       715       1     722     821     822     723
CQUAD4       716       1     723     822     823     724
CQUAD4       717       1     724     823     824     725
CQUAD4       718       1     725     824     825     726
CQUAD4       719       1     726     825     826     727
CQUAD4       720       1     727     826     827     728
CQUAD4       721       1     728     827     828     729
CQUAD4       722       1     729     828     829     730
CQUAD4       723       1     730     829     830     731
CQUAD4       724       1     731     830     831     732
CQUAD4       725       1     732     831     832     733
CQUAD4       726       1     733     832     833     734
CQUAD4       727       1     734     833     834     735
CQUAD4       728       1     735     834     835     736
CQUAD4       729       1     736     835     836     737
CQUAD4       730       1     737     836     837     738
CQUAD4       731       1     738     837     838     739
CQUAD4       732       1     739     838     839     740
CQUAD4       733       1     740     839     840     741
CQUAD4       734       1     741     840     841     742
CQUAD4       735       1     742     841     842     743
CQUAD4       736       1     743     842     843     744
CQUAD4       737       1     744     843     844     745
CQUAD4       738       1     745     844     845     746
CQUAD4       739       1     746     845     846     747
CQUAD4       740       1     747     846     847     748
CQUAD4       741       1     748     847     848     749
CQUAD4       742       1     749     848     849     750
CQUAD4       743       1     750     849     850     751
CQUAD4       744       1     751     850     851     752
CQUAD4       745       1     752     851     852     753
CQUAD4       746       1     753     852     853     754
CQUAD4       747       1     754     853     854     755
CQUAD4       748       1     755     854     855     756
CQUAD4       749       1     756     855     856     757
CQUAD4       750       1     757     856     857     758
CQUAD4       751       1     758     857     858     759
CQUAD4       752       1     759     858     859     760
CQUAD4       753       1     760     859     860     761
CQUAD4       754       1     761     860     861     762
CQUAD4       755       1     762     861     862     763
CQUAD4       756       1     763     862     863     764
CQUAD4       757       1     764     863     864     765
CQUAD4       758       1     765     864     865     766
CQUAD4       759       1     766     865     866     767
CQUAD4       760       1     767     866     867     768
CQUAD4       761       1     768     867     868     769
CQUAD4       762       1     769     868     869     770
CQUAD4       763       1     770     869     870     771
CQUAD4       764       1     771     870     871     772
CQUAD4       765       1     772     871     872     773
CQUAD4       766       1     773     872     873     774
CQUAD4       767       1     774     873     874     775
CQUAD4       768       1     775     874     875     776
CQUAD4       769       1     776     875     876     777
CQUAD4       770       1     777     876     877     778
CQUAD4       771       1     778     877     878     779
CQUAD4       772       1     779     878     879     780
CQUAD4       773       1     780     879     880     781
CQUAD4       774       1     781     880     881     782
CQUAD4       775       1     782     881     882     783
CQUAD4       776       1     783     882     883     784
CQUAD4       777       1     784     883     884     785
CQUAD4       778       1     785     884     885     786
CQUAD4       779       1     786     885     886     787
CQUAD4       780       1     787     886     887     788
CQUAD4       781       1     788     887     888     789
CQUAD4       782       1     789     888     889     790
CQUAD4       783       1     790     889     890     791
CQUAD4       784       1     791     890     891     792
CQUAD4       785       1    1108     892       1     999
CQUAD4       786       1     892     893     100       1
CQUAD4       787       1     893     894     199     100
CQUAD4       788       1     894     895     298     199
CQUAD4       789       1     895     896     397     298
CQUAD4       790       1     896     897     496     397
CQUAD4       791       1     897     898     595     496
CQUAD4       792       1     898     899     694     595
CQUAD4       793       1     899     900     793     694
CQUAD4       794       1     900    1109    1000     793
CQUAD4       795       1     793    1000    1001     794
CQUAD4       796       1     794    1001    1002     795
CQUAD4       797       1     795    1002    1003     796
CQUAD4       798       1     796    1003    1004     797
CQUAD4       799       1     797    1004    1005     798
CQUAD4       800       1     798    1005    1006     799
CQUAD4       801       1     799    1006    1007     800
CQUAD4       802       1     800    1007    1008     801
CQUAD4       803       1     801    1008    1009     802
CQUAD4       804       1     802    1009    1010     803
CQUAD4       805       1     803    1010    1011     804
CQUAD4       806       1     804    1011    1012     805
CQUAD4       807       1     805    1012    1013     806
CQUAD4       808       1     806    1013    1014     807
CQUAD4       809       1     807    1014    1015     808
CQUAD4       810       1     808    1015    1016     809
CQUAD4       811       1     809    1016    1017     810
CQUAD4       812       1     810    1017    1018     811
CQUAD4       813       1     811    1018    1019     812
CQUAD4       814       1     812    1019    1020     813
CQUAD4       815       1     813    1020    1021     814
CQUAD4       816       1     814    1021    1022     815
CQUAD4       817       1     815    1022    1023     816
CQUAD4       818       1     816    1023    1024     817
CQUAD4       819       1     817    1024    1025     818
CQUAD4       820       1     818    1025    1026     819
CQUAD4       821       1     819    1026    1027     820
CQUAD4       822       1     820    1027    1028     821
CQUAD4       823       1     821    1028    1029     822
CQUAD4       824       1     822    1029    1030     823
CQUAD4       825       1     823    1030    1031     824
CQUAD4       826       1     824    1031    1032     825
CQUAD4       827       1     825    1032    1033     826
CQUAD4       828       1     826    1033    1034     827
CQUAD4       829       1     827    1034    1035     828
CQUAD4       830       1     828    1035    1036     829
CQUAD4       831       1     829    1036    1037     830
CQUAD4       832       1     830    1037    1038     831
CQUAD4       833       1     831    1038    1039     832
CQUAD4       834       1     832    1039    1040     833
CQUAD4       835       1     833    1040    1041     834
CQUAD4       836       1     834    1041    1042     835
CQUAD4       837       1     835    1042    1043     836
CQUAD4       838       1     836    1043    1044     837
CQUAD4       839       1     837    1044    1045     838
CQUAD4       840       1     838    1045    1046     839
CQUAD4       841       1     839    1046    1047     840
CQUAD4       842       1     840    1047    1048     841
CQUAD4       843       1     841    1048    1049     842
CQUAD4       844       1     842    1049    1050     843
CQUAD4       845       1     843    1050    1051     844
CQUAD4       846       1     844    1051    1052     845
CQUAD4       847       1     845    1052    1053     846
CQUAD4       848       1     846    1053    1054     847
CQUAD4       849       1     847    1054    1055     848
CQUAD4       850       1     848    1055    1056     849
CQUAD4       851       1     849    1056    1057     850
CQUAD4       852       1     850    1057    1058     851
CQUAD4       853       1     851    1058    1059     852
CQUAD4       854       1     852    1059    1060     853
CQUAD4       855       1     853    1060    1061     854
CQUAD4       856       1     854    1061    1062     855
CQUAD4       857       1     855    1062    1063     856
CQUAD4       858       1     856    1063    1064     857
CQUAD4       859       1     857    1064    1065     858
CQUAD4       860       1     858    1065    1066     859
CQUAD4       861       1     859    1066    1067     860
CQUAD4       862       1     860    1067    1068     861
CQUAD4       863       1     861    1068    1069     862
CQUAD4       864       1     862    1069    1070     863
CQUAD4       865       1     863    1070    1071     864
CQUAD4       866       1     864    1071    1072     865
CQUAD4       867       1     865    1072    1073     866
CQUAD4       868       1     866    1073    1074     867
CQUAD4       869       1     867    1074    1075     868
CQUAD4       870       1     868    1075    1076     869
CQUAD4       871       1     869    1076    1077     870
CQUAD4       872       1     870    1077    1078     871
CQUAD4       873       1     871    1078    1079     872
CQUAD4       874       1     872    1079    1080     873
CQUAD4       875       1     873    1080    1081     874
CQUAD4       876       1     874    1081    1082     875
CQUAD4       877       1     875    1082    1083     876
CQUAD4       878       1     876    1083    1084     877
CQUAD4       879       1     877    1084    1085     878
CQUAD4       880       1     878    1085    1086     879
CQUAD4       881       1     879    1086    1087     880
CQUAD4       882       1     880    1087    1088     881
CQUAD4       883       1     881    1088    1089     882
CQUAD4       884       1     882    1089    1090     883
CQUAD4       885       1     883    1090    1091     884
CQUAD4       886       1     884    1091    1092     885
CQUAD4       887       1     885    1092    1093     886
CQUAD4       888       1     886    1093    1094     887
CQUAD4       889       1     887    1094    1095     888
CQUAD4       890       1     888    1095    1096     889
CQUAD4       891       1     889    1096    1097     890
CQUAD4       892       1     890    1097    1098     891
CQUAD4       893       1     891    1098    1111    1099
CQUAD4       894       1     792     891    1099    1100
CQUAD4       895       1     693     792    1100    1101
CQUAD4       896       1     594     693    1101    1102
CQUAD4       897       1     495     594    1102    1103
CQUAD4       898       1     396     495    1103    1104
CQUAD4       899       1     297     396    1104    1105
CQUAD4       900       1     198     297    1105    1106
CQUAD4       901       1      99     198    1106    1107
CQUAD4       902       1     901      99    1107    1110
CQUAD4       903       1     902      98      99     901
CQUAD4       904       1     903      97      98     902
CQUAD4       905       1     904      96      97     903
CQUAD4       906       1     905      95      96     904
CQUAD4       907       1     906      94      95     905
CQUAD4       908       1     907      93      94     906
CQUAD4       909       1     908      92      93     907
CQUAD4       910       1     909      91      92     908
CQUAD4       911       1     910      90      91     909
CQUAD4       912       1     911      89      90     910
CQUAD4       913       1     912      88      89     911
CQUAD4       914       1     913      87      88     912
CQUAD4       915       1     914      86      87     913
CQUAD4       916       1     915      85      86     914
CQUAD4       917       1     916      84      85     915
CQUAD4       918       1     917      83      84     916
CQUAD4       919       1     918      82      83     917
CQUAD4       920       1     919      81      82     918
CQUAD4       921       1     920      80      81     919
CQUAD4       922       1     921      79      80     920
CQUAD4       923       1     922      78      79     921
CQUAD4       924       1     923      77      78     922
CQUAD4       925       1     924      76      77     923
CQUAD4       926       1     925      75      76     924
CQUAD4       927       1     926      74      75     925
CQUAD4       928       1     927      73      74     926
CQUAD4       929       1     928      72      73     927
CQUAD4       930       1     929      71      72     928
CQUAD4       931       1     930      70      71     929
CQUAD4       932       1     931      69      70     930
CQUAD4       933       1     932      68      69     931
CQUAD4       934       1     933      67      68     932
CQUAD4       935       1     934      66      67     933
CQUAD4       936       1     935      65      66     934
CQUAD4       937       1     936      64      65     935
CQUAD4       938       1     937      63      64     936
CQUAD4       939       1     938      62      63     937
CQUAD4       940       1     939      61      62     938
CQUAD4       941       1     940      60      61     939
CQUAD4       942       1     941      59      60     940
CQUAD4       943       1     942      58      59     941
CQUAD4       944       1     943      57      58     942
CQUAD4       945       1     944      56      57     943
CQUAD4       946       1     945      55      56     944
CQUAD4       947       1     946      54      55     945
CQUAD4       948       1     947      53      54     946
CQUAD4       949       1     948      52      53     947
CQUAD4       950       1     949      51      52     948
CQUAD4       951       1     950      50      51     949
CQUAD4       952       1     951      49      50     950
CQUAD4       953       1     952      48      49     951
CQUAD4       954       1     953      47      48     952
CQUAD4       955       1     954      46      47     953
CQUAD4       956       1     955      45      46     954
CQUAD4       957       1     956      44      45     955
CQUAD4       958       1     957      43      44     956
CQUAD4       959       1     958      42      43     957
CQUAD4       960       1     959      41      42     958
CQUAD4       961       1     960      40      41     959
CQUAD4       962       1     961      39      40     960
CQUAD4       963       1     962      38      39     961
CQUAD4       964       1     963      37      38     962
CQUAD4       965       1     964      36      37     963
CQUAD4       966       1     965      35      36     964
CQUAD4       967       1     966      34      35     965
CQUAD4       968       1     967      33      34     966
CQUAD4       969       1     968      32      33     967
CQUAD4       970       1     969      31      32     968
CQUAD4       971       1     970      30      31     969
CQUAD4       972       1     971      29      30     970
CQUAD4       973       1     972      28      29     971
CQUAD4       974       1     973      27      28     972
CQUAD4       975       1     974      26      27     973
CQUAD4       976       1     975      25      26     974
CQUAD4       977       1     976      24      25     975
CQUAD4       978       1     977      23      24     976
CQUAD4       979       1     978      22      23     977
CQUAD4       980       1     979      21      22     978
CQUAD4       981       1     980      20      21     979
CQUAD4       982       1     981      19      20     980
CQUAD4       983       1     982      18      19     981
CQUAD4       984       1     983      17      18     982
CQUAD4       985       1     984      16      17     983
CQUAD4       986       1     985      15      16     984
CQUAD4       987       1     986      14      15     985
CQUAD4       988       1     987      13      14     986
CQUAD4       989       1     988      12      13     987
CQUAD4       990       1     989      11      12     988
CQUAD4       991       1     990      10      11     989
CQUAD4       992       1     991       9      10     990
CQUAD4       993       1     992       8       9     991
CQUAD4       994       1     993       7       8     992
CQUAD4       995       1     994       6       7     993
CQUAD4       996       1     995       5       6     994
CQUAD4       997       1     996       4       5     995
CQUAD4       998       1     997       3       4     996
CQUAD4       999       1     998       2       3     997
CQUAD4      1000       1     999       1       2     998
$*
$* PROPERTY CARDS
$*
$*  NX Property: PSHELL1
PSHELL         1       21.000000       21.000000       20.833333  0.0000
$*
$* MATERIAL CARDS
$*
$*  NX Material: AL ALY 7050-T7451_1
MAT1           27.000+10        0.3300002.8230-6
$*
$* LOAD AND CONSTRAINT CARDS
$*
$*  NX Load and Constraint: Fixed(1)
SPC            1     892  123456  0.0000
SPC            1     893  123456  0.0000
SPC            1     894  123456  0.0000
SPC            1     895  123456  0.0000
SPC            1     896  123456  0.0000
SPC            1     897  123456  0.0000
SPC            1     898  123456  0.0000
SPC            1     899  123456  0.0000
SPC            1     900  123456  0.0000
SPC            1    1108  123456  0.0000
SPC            1    1109  123456  0.0000
$*  NX Load and Constraint: Force(1)
FORCE          2    1099       01.000000  0.0000  0.0000-10000.0
FORCE          2    1100       01.000000  0.0000  0.0000-10000.0
FORCE          2    1101       01.000000  0.0000  0.0000-10000.0
FORCE          2    1102       01.000000  0.0000  0.0000-10000.0
FORCE          2    1103       01.000000  0.0000  0.0000-10000.0
FORCE          2    1104       01.000000  0.0000  0.0000-10000.0
FORCE          2    1105       01.000000  0.0000  0.0000-10000.0
FORCE          2    1106       01.000000  0.0000  0.0000-10000.0
FORCE          2    1107       01.000000  0.0000  0.0000-10000.0
FORCE          2    1110       01.000000  0.0000  0.0000 -5000.0
FORCE          2    1111       01.000000  0.0000  0.0000 -5000.0
ENDDATA 7dd4ced4
