$ NASTRAN input file created by the MSC MSC.Nastran input file
$ translator ( MSC.Patran 14.0.019 ) on September 04, 2012 at 13:32:46.
$ Direct Text Input for Nastran System Cell Section
$ Linear Static Analysis, Non-database
SOL 1
CEND
TITLE = ANALYSE STATIQUE DU SUPPORT DE BOUTEILLE | OXYG|NE
ECHO = NONE
SUBCASE 1
$ Subcase name : ANALYSE_STATIQUE.SC1
   SUBTITLE=ANALYSE_STATIQUE.SC1
   SPC = 2
   LOAD = 5
   DISPLACEMENT(PLOT,SORT1,REAL)=ALL
   SPCFORCES(PLOT,SORT1,REAL)=ALL
   MPCFORCES(PLOT,SORT1,REAL)=ALL
   STRAIN(PLOT,SORT1,REAL,VONMISES,STRCUR,CENTER)=ALL
   STRESS(PLOT,SORT1,REAL,VONMISES,CENTER)=ALL
   FORCE(PLOT,SORT1,REAL,CENTER)=ALL
SUBCASE 2
$ Subcase name : ANALYSE_STATIQUE.SC2
   SUBTITLE=ANALYSE_STATIQUE.SC2
   SPC = 2
   LOAD = 7
   DISPLACEMENT(PLOT,SORT1,REAL)=ALL
   SPCFORCES(PLOT,SORT1,REAL)=ALL
   MPCFORCES(PLOT,SORT1,REAL)=ALL
   STRAIN(PLOT,SORT1,REAL,VONMISES,STRCUR,CENTER)=ALL
   STRESS(PLOT,SORT1,REAL,VONMISES,CENTER)=ALL
   FORCE(PLOT,SORT1,REAL,CENTER)=ALL
SUBCASE 3
$ Subcase name : ANALYSE_STATIQUE.SC3
   SUBTITLE=ANALYSE_STATIQUE.SC3
   SPC = 2
   LOAD = 9
   DISPLACEMENT(PLOT,SORT1,REAL)=ALL
   SPCFORCES(PLOT,SORT1,REAL)=ALL
   MPCFORCES(PLOT,SORT1,REAL)=ALL
   STRAIN(PLOT,SORT1,REAL,VONMISES,STRCUR,CENTER)=ALL
   STRESS(PLOT,SORT1,REAL,VONMISES,CENTER)=ALL
   FORCE(PLOT,SORT1,REAL,CENTER)=ALL
BEGIN BULK
PARAM    POST    0
PARAM    GRDPNT  0
PARAM,NOCOMPS,-1
PARAM   PRTMAXIM YES
$ Elements and Element Properties for region : pbar.21
PBAR     21      2      1070.2  6.9+6   6.9+6   1.38+7
$ Pset: "pbar.21" will be imported as: "pbar.21"
CBAR     3000    21      3000    3001    0.     1.       0.
CBAR     3001    21      3001    3002    0.     1.       0.
CBAR     3002    21      3002    3003    0.     1.       0.
CBAR     3003    21      3003    3004    0.     1.       0.
CBAR     3004    21      3004    3005    0.     1.       0.
CBAR     3005    21      3005    3006    0.     1.       0.
CBAR     3006    21      3006    3007    0.     1.       0.
CBAR     3007    21      3007    3008    0.     1.       0.
CBAR     3008    21      3008    3009    0.     1.       0.
CBAR     3009    21      3009    3010    0.     1.       0.
CBAR     3010    21      3010    3011    0.     1.       0.
CBAR     3011    21      3011    3012    0.     1.       0.
$ Elements and Element Properties for region : prod.14
CONROD   29000   29001   29002   3      53.4
$ Elements and Element Properties for region : pshell.1
PSHELL   1       1      1.2      1               1
$ Pset: "pshell.1" will be imported as: "pshell.1"
CTRIA3   1       1       316     399     394     0.      0.
CTRIA3   2       1       608     604     551     0.      0.
CTRIA3   3       1       140     596     600     0.      0.
CQUAD4   6       1       8021    1       615     8022    0.      0.
CQUAD4   7       1       8027    8021    1       25      0.      0.
CQUAD4   8       1       25      1       24      3       0.      0.
CQUAD4   9       1       28      8       27      26      0.      0.
CQUAD4   10      1       8026    28      26      8025    0.      0.
CQUAD4   11      1       8025    8022    615     26      0.      0.
CQUAD4   12      1       32      3       24      4       0.      0.
CQUAD4   13      1       31      32      4       29      0.      0.
CQUAD4   14      1       29      30      22      4       0.      0.
CQUAD4   15      1       35      7       27      8       0.      0.
CQUAD4   16      1       34      33      7       35      0.      0.
CQUAD4   17      1       7       22      30      33      0.      0.
CQUAD4   18      1       8028    36      617     8029    0.      0.
CQUAD4   19      1       8000    8028    36      4501    0.      0.
CQUAD4   20      1       4501    36      37      4500    0.      0.
CQUAD4   21      1       25      3       39      38      0.      0.
CQUAD4   22      1       8027    25      38      8030    0.      0.
CQUAD4   23      1       8030    8029    617     38      0.      0.
CQUAD4   24      1       4503    4500    37      6       0.      0.
CQUAD4   25      1       4502    4503    6       40      0.      0.
CQUAD4   26      1       40      41      23      6       0.      0.
CQUAD4   27      1       32      5       39      3       0.      0.
CQUAD4   28      1       31      42      5       32      0.      0.
CQUAD4   29      1       5       23      41      42      0.      0.
CQUAD4   30      1       8031    43      616     8023    0.      0.
CQUAD4   31      1       8026    8031    43      28      0.      0.
CQUAD4   32      1       28      43      44      8       0.      0.
CQUAD4   33      1       47      45      46      2       0.      0.
CQUAD4   34      1       8032    47      2       8024    0.      0.
CQUAD4   35      1       8024    8023    616     2       0.      0.
CQUAD4   36      1       35      8       44      9       0.      0.
CQUAD4   37      1       34      35      9       48      0.      0.
CQUAD4   38      1       48      49      21      9       0.      0.
CQUAD4   39      1       52      10      46      45      0.      0.
CQUAD4   40      1       51      50      10      52      0.      0.
CQUAD4   41      1       10      21      49      50      0.      0.
CQUAD4   42      1       8033    53      618     8034    0.      0.
CQUAD4   43      1       8032    8033    53      47      0.      0.
CQUAD4   44      1       47      53      54      45      0.      0.
CQUAD4   45      1       57      14      56      55      0.      0.
CQUAD4   46      1       8036    57      55      8035    0.      0.
CQUAD4   47      1       8035    8034    618     55      0.      0.
CQUAD4   48      1       52      45      54      12      0.      0.
CQUAD4   49      1       51      52      12      58      0.      0.
CQUAD4   50      1       58      59      20      12      0.      0.
CQUAD4   51      1       62      11      56      14      0.      0.
CQUAD4   52      1       61      60      11      62      0.      0.
CQUAD4   53      1       11      20      59      60      0.      0.
CQUAD4   54      1       8037    63      619     8038    0.      0.
CQUAD4   55      1       8036    8037    63      57      0.      0.
CQUAD4   56      1       57      63      64      14      0.      0.
CQUAD4   57      1       68      66      67      65      0.      0.
CQUAD4   58      1       8040    68      65      8039    0.      0.
CQUAD4   59      1       8039    8038    619     65      0.      0.
CQUAD4   60      1       62      14      64      13      0.      0.
CQUAD4   61      1       61      62      13      69      0.      0.
CQUAD4   62      1       69      70      16      13      0.      0.
CQUAD4   63      1       73      15      67      66      0.      0.
CQUAD4   64      1       72      71      15      73      0.      0.
CQUAD4   65      1       15      16      70      71      0.      0.
CQUAD4   66      1       8041    74      620     8042    0.      0.
CQUAD4   67      1       8044    8041    74      77      0.      0.
CQUAD4   68      1       77      74      76      75      0.      0.
CQUAD4   69      1       8020    78      79      621     0.      0.
CTRIA3   70      1       8043    621     8020    0.      0.
CQUAD4   71      1       8043    8042    620     621     0.      0.
CQUAD4   72      1       83      75      76      17      0.      0.
CQUAD4   73      1       82      83      17      80      0.      0.
CQUAD4   74      1       80      81      19      17      0.      0.
CQUAD4   75      1       86      18      79      78      0.      0.
CQUAD4   76      1       85      84      18      86      0.      0.
CQUAD4   77      1       18      19      81      84      0.      0.
CQUAD4   78      1       68      8040    8045    87      0.      0.
CQUAD4   79      1       73      88      89      72      0.      0.
CQUAD4   80      1       87      8045    8054    90      0.      0.
CQUAD4   81      1       90      8054    8053    91      0.      0.
CQUAD4   82      1       91      8053    8052    92      0.      0.
CQUAD4   83      1       92      8052    8051    93      0.      0.
CQUAD4   84      1       93      8051    8050    94      0.      0.
CQUAD4   85      1       94      8050    8049    95      0.      0.
CQUAD4   86      1       95      8049    8048    96      0.      0.
CQUAD4   87      1       96      8048    8047    97      0.      0.
CQUAD4   88      1       97      8047    8046    98      0.      0.
CQUAD4   89      1       99      101     104     103     0.      0.
CQUAD4   90      1       101     102     105     104     0.      0.
CQUAD4   91      1       103     104     107     106     0.      0.
CQUAD4   92      1       104     105     108     107     0.      0.
CQUAD4   93      1       106     107     110     109     0.      0.
CQUAD4   94      1       107     108     111     110     0.      0.
CQUAD4   95      1       109     110     113     112     0.      0.
CQUAD4   96      1       110     111     114     113     0.      0.
CQUAD4   97      1       112     113     1000    115     0.      0.
CQUAD4   98      1       113     114     117     1000    0.      0.
CQUAD4   99      1       115     1000    119     118     0.      0.
CQUAD4   100     1       1000    117     120     119     0.      0.
CQUAD4   101     1       118     119     122     121     0.      0.
CQUAD4   102     1       119     120     123     122     0.      0.
CQUAD4   103     1       121     122     124     100     0.      0.
CQUAD4   104     1       122     123     125     124     0.      0.
CQUAD4   105     1       88      99      101     89      0.      0.
CQUAD4   106     1       89      101     102     126     0.      0.
CQUAD4   107     1       8046    8044    77      98      0.      0.
CQUAD4   108     1       100     83      82      124     0.      0.
CQUAD4   109     1       128     129     132     130     0.      0.
CQUAD4   110     1       133     135     136     134     0.      0.
CQUAD4   111     1       135     137     129     136     0.      0.
CQUAD4   112     1       128     138     136     129     0.      0.
CQUAD4   113     1       138     139     134     136     0.      0.
CQUAD4   114     1       140     141     135     133     0.      0.
CQUAD4   115     1       141     142     137     135     0.      0.
CQUAD4   116     1       143     144     138     139     0.      0.
CQUAD4   117     1       144     145     128     138     0.      0.
CQUAD4   118     1       145     147     130     128     0.      0.
CQUAD4   119     1       147     131     146     130     0.      0.
CQUAD4   120     1       151     148     150     149     0.      0.
CQUAD4   121     1       142     137     148     151     0.      0.
CQUAD4   122     1       137     148     132     129     0.      0.
CQUAD4   123     1       157     154     146     131     0.      0.
CQUAD4   124     1       156     152     154     157     0.      0.
CQUAD4   125     1       152     154     155     153     0.      0.
CQUAD4   126     1       161     149     150     159     0.      0.
CQUAD4   127     1       160     161     159     158     0.      0.
CQUAD4   128     1       159     158     153     155     0.      0.
CQUAD4   129     1       162     163     166     164     0.      0.
CQUAD4   130     1       167     169     170     168     0.      0.
CQUAD4   131     1       169     171     163     170     0.      0.
CQUAD4   132     1       162     172     170     163     0.      0.
CQUAD4   133     1       172     173     168     170     0.      0.
CQUAD4   134     1       143     144     169     167     0.      0.
CQUAD4   135     1       144     145     171     169     0.      0.
CQUAD4   136     1       174     175     172     173     0.      0.
CQUAD4   137     1       175     176     162     172     0.      0.
CQUAD4   138     1       176     178     164     162     0.      0.
CQUAD4   139     1       178     165     177     164     0.      0.
CQUAD4   140     1       147     179     180     131     0.      0.
CQUAD4   141     1       145     171     179     147     0.      0.
CQUAD4   142     1       171     179     166     163     0.      0.
CQUAD4   143     1       186     183     177     165     0.      0.
CQUAD4   144     1       185     181     183     186     0.      0.
CQUAD4   145     1       181     183     184     182     0.      0.
CQUAD4   146     1       157     131     180     188     0.      0.
CQUAD4   147     1       156     157     188     187     0.      0.
CQUAD4   148     1       188     187     182     184     0.      0.
CQUAD4   149     1       189     190     192     191     0.      0.
CQUAD4   150     1       193     195     196     194     0.      0.
CQUAD4   151     1       195     197     190     196     0.      0.
CQUAD4   152     1       189     198     196     190     0.      0.
CQUAD4   153     1       198     199     194     196     0.      0.
CQUAD4   154     1       174     175     195     193     0.      0.
CQUAD4   155     1       175     176     197     195     0.      0.
CQUAD4   156     1       4505    4506    191     189     0.      0.
CQUAD4   157     1       4506    4504    200     191     0.      0.
CQUAD4   158     1       178     201     202     165     0.      0.
CQUAD4   159     1       176     197     201     178     0.      0.
CQUAD4   160     1       197     201     192     190     0.      0.
CQUAD4   161     1       4508    205     200     4504    0.      0.
CQUAD4   162     1       4507    203     205     4508    0.      0.
CQUAD4   163     1       203     205     206     204     0.      0.
CQUAD4   164     1       186     165     202     208     0.      0.
CQUAD4   165     1       185     186     208     207     0.      0.
CQUAD4   166     1       208     207     204     206     0.      0.
CQUAD4   167     1       209     210     213     211     0.      0.
CQUAD4   168     1       214     216     217     215     0.      0.
CQUAD4   169     1       216     218     219     217     0.      0.
CQUAD4   170     1       218     220     221     219     0.      0.
CQUAD4   171     1       220     222     210     221     0.      0.
CQUAD4   172     1       209     223     221     210     0.      0.
CQUAD4   173     1       223     224     219     221     0.      0.
CQUAD4   174     1       224     225     217     219     0.      0.
CQUAD4   175     1       225     226     215     217     0.      0.
CQUAD4   176     1       227     228     216     214     0.      0.
CQUAD4   177     1       228     229     218     216     0.      0.
CQUAD4   178     1       229     230     220     218     0.      0.
CQUAD4   179     1       230     231     222     220     0.      0.
CQUAD4   180     1       232     233     225     226     0.      0.
CQUAD4   181     1       233     234     224     225     0.      0.
CQUAD4   182     1       234     235     223     224     0.      0.
CQUAD4   183     1       235     236     209     223     0.      0.
CQUAD4   184     1       236     238     211     209     0.      0.
CQUAD4   185     1       238     212     237     211     0.      0.
CQUAD4   186     1       242     239     241     240     0.      0.
CQUAD4   187     1       231     222     239     242     0.      0.
CQUAD4   188     1       222     239     213     210     0.      0.
CQUAD4   189     1       248     245     237     212     0.      0.
CQUAD4   190     1       247     243     245     248     0.      0.
CQUAD4   191     1       243     245     246     244     0.      0.
CQUAD4   192     1       252     240     241     250     0.      0.
CQUAD4   193     1       251     252     250     249     0.      0.
CQUAD4   194     1       250     249     244     246     0.      0.
CQUAD4   195     1       253     254     256     255     0.      0.
CQUAD4   196     1       257     259     260     258     0.      0.
CQUAD4   197     1       259     261     262     260     0.      0.
CQUAD4   198     1       261     263     264     262     0.      0.
CQUAD4   199     1       263     265     254     264     0.      0.
CQUAD4   200     1       253     266     264     254     0.      0.
CQUAD4   201     1       266     267     262     264     0.      0.
CQUAD4   202     1       267     268     260     262     0.      0.
CQUAD4   203     1       268     269     258     260     0.      0.
CQUAD4   204     1       270     271     259     257     0.      0.
CQUAD4   205     1       271     272     261     259     0.      0.
CQUAD4   206     1       272     273     263     261     0.      0.
CQUAD4   207     1       273     274     265     263     0.      0.
CQUAD4   208     1       227     228     268     269     0.      0.
CQUAD4   209     1       228     229     267     268     0.      0.
CQUAD4   210     1       229     230     266     267     0.      0.
CQUAD4   211     1       230     231     253     266     0.      0.
CQUAD4   212     1       231     242     255     253     0.      0.
CQUAD4   213     1       242     240     275     255     0.      0.
CQUAD4   214     1       279     276     278     277     0.      0.
CQUAD4   215     1       274     265     276     279     0.      0.
CQUAD4   216     1       265     276     256     254     0.      0.
CQUAD4   217     1       252     282     275     240     0.      0.
CQUAD4   218     1       251     280     282     252     0.      0.
CQUAD4   219     1       280     282     283     281     0.      0.
CQUAD4   220     1       287     277     278     285     0.      0.
CQUAD4   221     1       286     287     285     284     0.      0.
CQUAD4   222     1       285     284     281     283     0.      0.
CQUAD4   223     1       288     289     291     290     0.      0.
CQUAD4   224     1       292     294     295     293     0.      0.
CQUAD4   225     1       294     296     297     295     0.      0.
CQUAD4   226     1       296     298     299     297     0.      0.
CQUAD4   227     1       298     300     289     299     0.      0.
CQUAD4   228     1       288     301     299     289     0.      0.
CQUAD4   229     1       301     302     297     299     0.      0.
CQUAD4   230     1       302     303     295     297     0.      0.
CQUAD4   231     1       303     304     293     295     0.      0.
CQUAD4   232     1       305     306     294     292     0.      0.
CQUAD4   233     1       306     307     296     294     0.      0.
CQUAD4   234     1       307     308     298     296     0.      0.
CQUAD4   235     1       308     309     300     298     0.      0.
CQUAD4   236     1       270     271     303     304     0.      0.
CQUAD4   237     1       271     272     302     303     0.      0.
CQUAD4   238     1       272     273     301     302     0.      0.
CQUAD4   239     1       273     274     288     301     0.      0.
CQUAD4   240     1       274     279     290     288     0.      0.
CQUAD4   241     1       279     277     310     290     0.      0.
CQUAD4   242     1       314     311     313     312     0.      0.
CQUAD4   243     1       309     300     311     314     0.      0.
CQUAD4   244     1       300     311     291     289     0.      0.
CQUAD4   245     1       287     317     310     277     0.      0.
CQUAD4   246     1       286     315     317     287     0.      0.
CQUAD4   247     1       315     317     318     316     0.      0.
CQUAD4   248     1       322     312     313     320     0.      0.
CQUAD4   249     1       321     322     320     319     0.      0.
CQUAD4   250     1       320     319     316     318     0.      0.
CQUAD4   251     1       323     324     326     325     0.      0.
CQUAD4   252     1       327     329     330     328     0.      0.
CQUAD4   253     1       329     331     332     330     0.      0.
CQUAD4   254     1       331     333     334     332     0.      0.
CQUAD4   255     1       333     335     324     334     0.      0.
CQUAD4   256     1       323     336     334     324     0.      0.
CQUAD4   257     1       336     337     332     334     0.      0.
CQUAD4   258     1       337     338     330     332     0.      0.
CQUAD4   259     1       338     339     328     330     0.      0.
CQUAD4   260     1       612     613     329     327     0.      0.
CQUAD4   261     1       613     340     331     329     0.      0.
CQUAD4   262     1       340     341     333     331     0.      0.
CQUAD4   263     1       341     342     335     333     0.      0.
CQUAD4   264     1       305     306     338     339     0.      0.
CQUAD4   265     1       306     307     337     338     0.      0.
CQUAD4   266     1       307     308     336     337     0.      0.
CQUAD4   267     1       308     309     323     336     0.      0.
CQUAD4   268     1       309     314     325     323     0.      0.
CQUAD4   269     1       314     312     343     325     0.      0.
CQUAD4   270     1       347     344     346     345     0.      0.
CQUAD4   271     1       342     335     344     347     0.      0.
CQUAD4   272     1       335     344     326     324     0.      0.
CQUAD4   273     1       322     350     343     312     0.      0.
CQUAD4   274     1       321     348     350     322     0.      0.
CQUAD4   275     1       348     350     351     349     0.      0.
CQUAD4   276     1       355     345     346     353     0.      0.
CQUAD4   277     1       354     355     353     352     0.      0.
CQUAD4   278     1       353     352     349     351     0.      0.
CQUAD4   279     1       80      81      357     356     0.      0.
CQUAD4   280     1       81      84      358     357     0.      0.
CQUAD4   281     1       84      85      359     358     0.      0.
CQUAD4   282     1       356     357     362     361     0.      0.
CQUAD4   283     1       357     358     363     362     0.      0.
CQUAD4   284     1       358     359     364     363     0.      0.
CQUAD4   285     1       360     361     366     365     0.      0.
CQUAD4   286     1       361     362     367     366     0.      0.
CQUAD4   287     1       362     363     368     367     0.      0.
CQUAD4   288     1       363     364     369     368     0.      0.
CQUAD4   289     1       365     366     371     370     0.      0.
CQUAD4   290     1       366     367     372     371     0.      0.
CQUAD4   291     1       367     368     373     372     0.      0.
CQUAD4   292     1       368     369     374     373     0.      0.
CQUAD4   293     1       370     371     376     375     0.      0.
CQUAD4   294     1       371     372     377     376     0.      0.
CQUAD4   295     1       372     373     378     377     0.      0.
CQUAD4   296     1       373     374     379     378     0.      0.
CQUAD4   297     1       375     376     381     380     0.      0.
CQUAD4   298     1       376     377     382     381     0.      0.
CQUAD4   299     1       377     378     383     382     0.      0.
CQUAD4   300     1       378     379     384     383     0.      0.
CQUAD4   301     1       380     381     348     321     0.      0.
CQUAD4   302     1       381     382     349     348     0.      0.
CQUAD4   303     1       382     383     352     349     0.      0.
CQUAD4   304     1       383     384     354     352     0.      0.
CQUAD4   305     1       319     127     380     321     0.      0.
CQUAD4   306     1       82      80      356     385     0.      0.
CQUAD4   307     1       385     360     386     125     0.      0.
CQUAD4   308     1       360     365     387     386     0.      0.
CQUAD4   309     1       365     370     388     387     0.      0.
CQUAD4   310     1       370     375     389     388     0.      0.
CQUAD4   311     1       375     380     127     389     0.      0.
CQUAD4   312     1       125     386     390     123     0.      0.
CQUAD4   313     1       386     387     391     390     0.      0.
CQUAD4   314     1       387     388     392     391     0.      0.
CQUAD4   315     1       388     389     393     392     0.      0.
CQUAD4   316     1       389     127     394     393     0.      0.
CQUAD4   317     1       123     390     395     120     0.      0.
CQUAD4   318     1       390     391     396     395     0.      0.
CQUAD4   319     1       391     392     397     396     0.      0.
CQUAD4   320     1       392     393     398     397     0.      0.
CQUAD4   321     1       393     394     399     398     0.      0.
CQUAD4   322     1       120     395     400     117     0.      0.
CQUAD4   323     1       395     396     401     400     0.      0.
CQUAD4   324     1       396     397     402     401     0.      0.
CQUAD4   325     1       397     398     403     402     0.      0.
CQUAD4   326     1       398     399     404     403     0.      0.
CQUAD4   327     1       117     400     405     114     0.      0.
CQUAD4   328     1       400     401     406     405     0.      0.
CQUAD4   329     1       401     402     407     406     0.      0.
CQUAD4   330     1       402     403     408     407     0.      0.
CQUAD4   331     1       403     404     409     408     0.      0.
CQUAD4   332     1       114     405     410     111     0.      0.
CQUAD4   333     1       405     406     411     410     0.      0.
CQUAD4   334     1       406     407     412     411     0.      0.
CQUAD4   335     1       407     408     413     412     0.      0.
CQUAD4   336     1       408     409     414     413     0.      0.
CQUAD4   337     1       111     410     415     108     0.      0.
CQUAD4   338     1       410     411     416     415     0.      0.
CQUAD4   339     1       411     412     417     416     0.      0.
CQUAD4   340     1       412     413     418     417     0.      0.
CQUAD4   341     1       413     414     419     418     0.      0.
CQUAD4   342     1       108     415     420     105     0.      0.
CQUAD4   343     1       415     416     421     420     0.      0.
CQUAD4   344     1       416     417     422     421     0.      0.
CQUAD4   345     1       417     418     423     422     0.      0.
CQUAD4   346     1       418     419     424     423     0.      0.
CQUAD4   347     1       105     420     425     102     0.      0.
CQUAD4   348     1       420     421     426     425     0.      0.
CQUAD4   349     1       421     422     427     426     0.      0.
CQUAD4   350     1       422     423     428     427     0.      0.
CQUAD4   351     1       423     424     429     428     0.      0.
CQUAD4   352     1       102     425     430     126     0.      0.
CQUAD4   353     1       425     426     431     430     0.      0.
CQUAD4   354     1       426     427     432     431     0.      0.
CQUAD4   355     1       427     428     433     432     0.      0.
CQUAD4   356     1       428     429     251     433     0.      0.
CQUAD4   357     1       88      435     436     99      0.      0.
CQUAD4   358     1       435     87      90      436     0.      0.
CQUAD4   359     1       99      436     437     103     0.      0.
CQUAD4   360     1       436     90      91      437     0.      0.
CQUAD4   361     1       103     437     438     106     0.      0.
CQUAD4   362     1       437     91      92      438     0.      0.
CQUAD4   363     1       106     438     439     109     0.      0.
CQUAD4   364     1       438     92      93      439     0.      0.
CQUAD4   365     1       109     439     440     112     0.      0.
CQUAD4   366     1       439     93      94      440     0.      0.
CQUAD4   367     1       112     440     441     115     0.      0.
CQUAD4   368     1       440     94      95      441     0.      0.
CQUAD4   369     1       115     441     442     118     0.      0.
CQUAD4   370     1       441     95      96      442     0.      0.
CQUAD4   371     1       118     442     443     121     0.      0.
CQUAD4   372     1       442     96      97      443     0.      0.
CQUAD4   373     1       121     443     444     100     0.      0.
CQUAD4   374     1       443     97      98      444     0.      0.
CQUAD4   375     1       98      77      75      444     0.      0.
CQUAD4   376     1       444     75      83      100     0.      0.
CQUAD4   378     1       429     424     280     251     0.      0.
CQUAD4   379     1       424     419     281     280     0.      0.
CQUAD4   380     1       419     414     284     281     0.      0.
CQUAD4   381     1       414     409     286     284     0.      0.
CQUAD4   382     1       409     404     315     286     0.      0.
CQUAD4   383     1       316     315     404     399     0.      0.
CQUAD4   384     1       319     127     394     316     0.      0.
CQUAD4   385     1       72      445     450     71      0.      0.
CQUAD4   386     1       445     446     451     450     0.      0.
CQUAD4   387     1       446     447     452     451     0.      0.
CQUAD4   388     1       447     448     453     452     0.      0.
CQUAD4   389     1       448     449     454     453     0.      0.
CQUAD4   390     1       449     249     244     454     0.      0.
CQUAD4   391     1       71      450     455     70      0.      0.
CQUAD4   392     1       450     451     456     455     0.      0.
CQUAD4   393     1       451     452     457     456     0.      0.
CQUAD4   394     1       452     453     458     457     0.      0.
CQUAD4   395     1       453     454     459     458     0.      0.
CQUAD4   396     1       454     244     243     459     0.      0.
CQUAD4   397     1       70      455     460     69      0.      0.
CQUAD4   398     1       455     456     461     460     0.      0.
CQUAD4   399     1       456     457     462     461     0.      0.
CQUAD4   400     1       457     458     463     462     0.      0.
CQUAD4   401     1       458     459     464     463     0.      0.
CQUAD4   402     1       69      460     465     61      0.      0.
CQUAD4   403     1       460     461     466     465     0.      0.
CQUAD4   404     1       461     462     467     466     0.      0.
CQUAD4   405     1       462     463     468     467     0.      0.
CQUAD4   406     1       463     464     469     468     0.      0.
CQUAD4   407     1       61      465     471     60      0.      0.
CQUAD4   408     1       465     466     472     471     0.      0.
CQUAD4   409     1       466     467     473     472     0.      0.
CQUAD4   410     1       467     468     474     473     0.      0.
CQUAD4   411     1       468     469     475     474     0.      0.
CQUAD4   412     1       469     470     476     475     0.      0.
CQUAD4   413     1       60      471     477     59      0.      0.
CQUAD4   414     1       471     472     478     477     0.      0.
CQUAD4   415     1       472     473     479     478     0.      0.
CQUAD4   416     1       473     474     480     479     0.      0.
CQUAD4   417     1       474     475     481     480     0.      0.
CQUAD4   418     1       475     476     482     481     0.      0.
CQUAD4   419     1       477     478     484     483     0.      0.
CQUAD4   420     1       478     479     485     484     0.      0.
CQUAD4   421     1       479     480     486     485     0.      0.
CQUAD4   422     1       480     481     487     486     0.      0.
CQUAD4   423     1       481     482     488     487     0.      0.
CQUAD4   424     1       483     484     490     489     0.      0.
CQUAD4   425     1       484     485     491     490     0.      0.
CQUAD4   426     1       485     486     492     491     0.      0.
CQUAD4   427     1       486     487     493     492     0.      0.
CQUAD4   428     1       487     488     160     493     0.      0.
CQUAD4   429     1       51      489     494     50      0.      0.
CQUAD4   430     1       489     490     495     494     0.      0.
CQUAD4   431     1       490     491     496     495     0.      0.
CQUAD4   432     1       491     492     497     496     0.      0.
CQUAD4   433     1       492     493     498     497     0.      0.
CQUAD4   434     1       493     160     158     498     0.      0.
CQUAD4   435     1       50      494     499     49      0.      0.
CQUAD4   436     1       494     495     500     499     0.      0.
CQUAD4   437     1       495     496     501     500     0.      0.
CQUAD4   438     1       496     497     502     501     0.      0.
CQUAD4   439     1       497     498     503     502     0.      0.
CQUAD4   440     1       498     158     153     503     0.      0.
CQUAD4   441     1       49      499     504     48      0.      0.
CQUAD4   442     1       499     500     505     504     0.      0.
CQUAD4   443     1       500     501     506     505     0.      0.
CQUAD4   444     1       501     502     507     506     0.      0.
CQUAD4   445     1       502     503     508     507     0.      0.
CQUAD4   446     1       503     153     152     508     0.      0.
CQUAD4   447     1       48      504     509     34      0.      0.
CQUAD4   448     1       504     505     510     509     0.      0.
CQUAD4   449     1       505     506     511     510     0.      0.
CQUAD4   450     1       506     507     512     511     0.      0.
CQUAD4   451     1       507     508     513     512     0.      0.
CQUAD4   452     1       508     152     156     513     0.      0.
CQUAD4   453     1       34      509     514     33      0.      0.
CQUAD4   454     1       509     510     515     514     0.      0.
CQUAD4   455     1       510     511     516     515     0.      0.
CQUAD4   456     1       511     512     517     516     0.      0.
CQUAD4   457     1       512     513     518     517     0.      0.
CQUAD4   458     1       513     156     187     518     0.      0.
CQUAD4   459     1       33      514     519     30      0.      0.
CQUAD4   460     1       514     515     520     519     0.      0.
CQUAD4   461     1       515     516     521     520     0.      0.
CQUAD4   462     1       516     517     522     521     0.      0.
CQUAD4   463     1       517     518     762     522     0.      0.
CQUAD4   464     1       518     187     182     762     0.      0.
CQUAD4   465     1       30      519     523     29      0.      0.
CQUAD4   466     1       519     520     524     523     0.      0.
CQUAD4   467     1       520     521     525     524     0.      0.
CQUAD4   468     1       521     522     526     525     0.      0.
CQUAD4   469     1       522     762     527     526     0.      0.
CQUAD4   470     1       762     182     181     527     0.      0.
CQUAD4   471     1       29      523     528     31      0.      0.
CQUAD4   472     1       523     524     529     528     0.      0.
CQUAD4   473     1       524     525     530     529     0.      0.
CQUAD4   474     1       525     526     531     530     0.      0.
CQUAD4   475     1       526     527     532     531     0.      0.
CQUAD4   476     1       527     181     185     532     0.      0.
CQUAD4   477     1       31      528     533     42      0.      0.
CQUAD4   478     1       528     529     534     533     0.      0.
CQUAD4   479     1       529     530     535     534     0.      0.
CQUAD4   480     1       530     531     536     535     0.      0.
CQUAD4   481     1       531     532     537     536     0.      0.
CQUAD4   482     1       532     185     207     537     0.      0.
CQUAD4   483     1       42      533     538     41      0.      0.
CQUAD4   484     1       533     534     539     538     0.      0.
CQUAD4   485     1       534     535     540     539     0.      0.
CQUAD4   486     1       535     536     541     540     0.      0.
CQUAD4   487     1       536     537     542     541     0.      0.
CQUAD4   488     1       537     207     204     542     0.      0.
CQUAD4   489     1       41      538     543     40      0.      0.
CQUAD4   490     1       538     539     544     543     0.      0.
CQUAD4   491     1       539     540     545     544     0.      0.
CQUAD4   492     1       540     541     546     545     0.      0.
CQUAD4   493     1       541     542     547     546     0.      0.
CQUAD4   494     1       542     204     203     547     0.      0.
CQUAD4   495     1       40      543     4509    4502    0.      0.
CQUAD4   496     1       543     544     4510    4509    0.      0.
CQUAD4   497     1       544     545     4511    4510    0.      0.
CQUAD4   498     1       545     546     4512    4511    0.      0.
CQUAD4   499     1       546     547     4513    4512    0.      0.
CQUAD4   500     1       547     203     4507    4513    0.      0.
CQUAD4   501     1       483     58      59      477     0.      0.
CQUAD4   502     1       483     58      51      489     0.      0.
CQUAD4   503     1       72      89      126     445     0.      0.
CQUAD4   504     1       445     126     430     446     0.      0.
CQUAD4   505     1       446     430     431     447     0.      0.
CQUAD4   506     1       447     431     432     448     0.      0.
CQUAD4   507     1       449     448     432     433     0.      0.
CQUAD4   508     1       249     251     433     449     0.      0.
CQUAD4   509     1       559     199     194     558     0.      0.
CQUAD4   510     1       558     194     193     557     0.      0.
CQUAD4   511     1       557     193     174     556     0.      0.
CQUAD4   512     1       556     174     173     555     0.      0.
CQUAD4   513     1       555     173     168     554     0.      0.
CQUAD4   514     1       554     168     167     553     0.      0.
CQUAD4   515     1       553     167     143     552     0.      0.
CQUAD4   516     1       143     139     550     552     0.      0.
CQUAD4   517     1       139     134     549     550     0.      0.
CQUAD4   518     1       134     133     548     549     0.      0.
CQUAD4   519     1       133     140     551     548     0.      0.
CQUAD4   520     1       232     564     562     226     0.      0.
CQUAD4   521     1       226     215     561     562     0.      0.
CQUAD4   522     1       215     214     560     561     0.      0.
CQUAD4   523     1       214     227     563     560     0.      0.
CQUAD4   524     1       269     258     566     567     0.      0.
CQUAD4   525     1       257     258     566     565     0.      0.
CQUAD4   526     1       270     257     565     568     0.      0.
CQUAD4   527     1       270     304     571     568     0.      0.
CQUAD4   528     1       571     304     293     570     0.      0.
CQUAD4   529     1       570     293     292     569     0.      0.
CQUAD4   530     1       569     292     305     572     0.      0.
CQUAD4   531     1       305     339     575     572     0.      0.
CQUAD4   532     1       339     328     574     575     0.      0.
CQUAD4   533     1       328     327     573     574     0.      0.
CQUAD4   534     1       327     612     614     573     0.      0.
CQUAD4   535     1       160     488     576     161     0.      0.
CQUAD4   536     1       488     482     577     576     0.      0.
CQUAD4   537     1       482     476     578     577     0.      0.
CQUAD4   538     1       476     470     579     578     0.      0.
CQUAD4   539     1       470     247     248     579     0.      0.
CQUAD4   540     1       161     576     580     149     0.      0.
CQUAD4   541     1       576     577     581     580     0.      0.
CQUAD4   542     1       577     578     582     581     0.      0.
CQUAD4   543     1       578     579     583     582     0.      0.
CQUAD4   544     1       579     248     212     583     0.      0.
CQUAD4   545     1       149     580     584     151     0.      0.
CQUAD4   546     1       580     581     585     584     0.      0.
CQUAD4   547     1       581     582     586     585     0.      0.
CQUAD4   548     1       582     583     587     586     0.      0.
CQUAD4   549     1       583     212     238     587     0.      0.
CQUAD4   550     1       151     584     588     142     0.      0.
CQUAD4   551     1       584     585     589     588     0.      0.
CQUAD4   552     1       585     586     590     589     0.      0.
CQUAD4   553     1       586     587     591     590     0.      0.
CQUAD4   554     1       587     238     236     591     0.      0.
CQUAD4   555     1       142     588     592     141     0.      0.
CQUAD4   556     1       588     589     593     592     0.      0.
CQUAD4   557     1       589     590     1001    593     0.      0.
CQUAD4   558     1       590     591     595     1001    0.      0.
CQUAD4   559     1       141     592     596     140     0.      0.
CQUAD4   560     1       592     593     597     596     0.      0.
CQUAD4   561     1       593     1001    598     597     0.      0.
CQUAD4   562     1       1001    595     599     598     0.      0.
CQUAD4   563     1       596     597     601     600     0.      0.
CQUAD4   564     1       597     598     602     601     0.      0.
CQUAD4   565     1       598     599     603     602     0.      0.
CQUAD4   566     1       600     601     605     604     0.      0.
CQUAD4   567     1       601     602     606     605     0.      0.
CQUAD4   568     1       602     603     607     606     0.      0.
CQUAD4   569     1       603     233     232     607     0.      0.
CQUAD4   570     1       604     605     609     608     0.      0.
CQUAD4   571     1       605     606     610     609     0.      0.
CQUAD4   572     1       606     607     611     610     0.      0.
CQUAD4   573     1       607     232     564     611     0.      0.
CQUAD4   574     1       469     464     247     470     0.      0.
CQUAD4   575     1       464     459     243     247     0.      0.
CQUAD4   576     1       595     591     236     235     0.      0.
CQUAD4   577     1       235     595     599     234     0.      0.
CQUAD4   578     1       600     604     551     140     0.      0.
CQUAD4   579     1       8020    8013    6283    78      0.      0.
CQUAD4   580     1       78      6283    6247    86      0.      0.
CQUAD4   581     1       86      6247    6284    85      0.      0.
CQUAD4   582     1       85      6284    6255    359     0.      0.
CQUAD4   583     1       359     6255    6289    364     0.      0.
CQUAD4   584     1       369     364     6289    6290    0.      0.
CQUAD4   585     1       369     6290    6291    374     0.      0.
CQUAD4   586     1       374     6291    6292    379     0.      0.
CQUAD4   587     1       379     6292    6257    384     0.      0.
CQUAD4   588     1       384     6257    6254    354     0.      0.
CQUAD4   589     1       354     6254    6288    355     0.      0.
CQUAD4   590     1       355     6288    6287    345     0.      0.
CQUAD4   591     1       345     6287    6253    347     0.      0.
CQUAD4   592     1       347     6253    6286    342     0.      0.
CQUAD4   593     1       342     6286    6251    341     0.      0.
CQUAD4   594     1       341     6251    6250    340     0.      0.
CQUAD4   595     1       340     6250    6249    613     0.      0.
CQUAD4   596     1       613     6249    6248    612     0.      0.
CQUAD4   597     1       612     6248    6258    614     0.      0.
CQUAD4   598     1       4515    198     199     4514    0.      0.
CQUAD4   599     1       66      435     88      73      0.      0.
CQUAD4   600     1       68      87      435     66      0.      0.
CQUAD4   601     1       599     234     233     603     0.      0.
CQUAD4   602     1       125     124     82      385     0.      0.
CQUAD4   603     1       360     385     356     361     0.      0.
CQUAD4   604     1       198     189     4505    4515    0.      0.
CQUAD4   605     1       559     199     4514    622     0.      0.
CQUAD4   607     1       562     625     624     561     0.      0.
CQUAD4   608     1       561     624     626     560     0.      0.
CQUAD4   609     1       560     626     627     563     0.      0.
CQUAD4   610     1       563     627     628     567     0.      0.
CQUAD4   611     1       567     628     629     566     0.      0.
CQUAD4   612     1       565     630     629     566     0.      0.
CQUAD4   613     1       568     631     630     565     0.      0.
CQUAD4   614     1       568     631     632     571     0.      0.
CQUAD4   615     1       571     632     633     570     0.      0.
CQUAD4   616     1       570     633     634     569     0.      0.
CQUAD4   617     1       569     634     635     572     0.      0.
CQUAD4   618     1       572     635     636     575     0.      0.
CQUAD4   619     1       575     636     637     574     0.      0.
CQUAD4   620     1       574     637     638     573     0.      0.
CQUAD4   621     1       638     573     614     639     0.      0.
CQUAD4   622     1       559     641     640     558     0.      0.
CQUAD4   623     1       558     640     642     557     0.      0.
CQUAD4   624     1       557     642     643     556     0.      0.
CQUAD4   625     1       556     643     644     555     0.      0.
CQUAD4   626     1       555     644     645     554     0.      0.
CQUAD4   627     1       554     645     646     553     0.      0.
CQUAD4   628     1       553     646     647     552     0.      0.
CQUAD4   629     1       552     647     648     550     0.      0.
CQUAD4   630     1       550     648     649     549     0.      0.
CQUAD4   631     1       549     649     650     548     0.      0.
CQUAD4   632     1       562     625     652     564     0.      0.
CQUAD4   633     1       608     654     653     609     0.      0.
CQUAD4   634     1       609     653     655     610     0.      0.
CQUAD4   635     1       610     655     656     611     0.      0.
CQUAD4   636     1       611     656     652     564     0.      0.
CQUAD4   637     1       559     641     657     622     0.      0.
CQUAD4   638     1       650     548     551     651     0.      0.
CQUAD4   639     1       651     551     608     654     0.      0.
CQUAD4   640     1       567     269     227     563     0.      0.
CQUAD4   641     1       37      658     659     36      0.      0.
CQUAD4   642     1       36      659     660     617     0.      0.
CQUAD4   643     1       617     660     661     38      0.      0.
CQUAD4   644     1       38      661     662     39      0.      0.
CQUAD4   645     1       39      662     663     5       0.      0.
CQUAD4   646     1       5       663     664     23      0.      0.
CQUAD4   647     1       23      664     665     6       0.      0.
CQUAD4   648     1       6       665     658     37      0.      0.
CQUAD4   649     1       24      666     667     1       0.      0.
CQUAD4   650     1       1       667     668     615     0.      0.
CQUAD4   651     1       615     668     669     26      0.      0.
CQUAD4   652     1       26      669     670     27      0.      0.
CQUAD4   653     1       27      670     671     7       0.      0.
CQUAD4   654     1       7       671     672     22      0.      0.
CQUAD4   655     1       22      672     673     4       0.      0.
CQUAD4   656     1       4       673     666     24      0.      0.
CQUAD4   657     1       44      674     675     43      0.      0.
CQUAD4   658     1       43      675     676     616     0.      0.
CQUAD4   659     1       616     676     677     2       0.      0.
CQUAD4   660     1       2       677     678     46      0.      0.
CQUAD4   661     1       46      678     679     10      0.      0.
CQUAD4   662     1       10      679     680     21      0.      0.
CQUAD4   663     1       21      680     681     9       0.      0.
CQUAD4   664     1       9       681     674     44      0.      0.
CQUAD4   665     1       54      682     683     53      0.      0.
CQUAD4   666     1       53      683     684     618     0.      0.
CQUAD4   667     1       618     684     685     55      0.      0.
CQUAD4   668     1       55      685     686     56      0.      0.
CQUAD4   669     1       56      686     687     11      0.      0.
CQUAD4   670     1       11      687     688     20      0.      0.
CQUAD4   671     1       20      688     689     12      0.      0.
CQUAD4   672     1       12      689     682     54      0.      0.
CQUAD4   673     1       64      690     691     63      0.      0.
CQUAD4   674     1       63      691     692     619     0.      0.
CQUAD4   675     1       619     692     693     65      0.      0.
CQUAD4   676     1       65      693     694     67      0.      0.
CQUAD4   677     1       67      694     695     15      0.      0.
CQUAD4   678     1       15      695     696     16      0.      0.
CQUAD4   679     1       16      696     697     13      0.      0.
CQUAD4   680     1       13      697     690     64      0.      0.
CQUAD4   681     1       76      698     699     74      0.      0.
CQUAD4   682     1       74      699     700     620     0.      0.
CQUAD4   683     1       620     700     701     621     0.      0.
CQUAD4   684     1       621     701     702     79      0.      0.
CQUAD4   685     1       79      702     703     18      0.      0.
CQUAD4   686     1       18      703     704     19      0.      0.
CQUAD4   687     1       19      704     705     17      0.      0.
CQUAD4   688     1       17      705     698     76      0.      0.
CQUAD4   689     1       177     706     707     183     0.      0.
CQUAD4   690     1       183     707     708     184     0.      0.
CQUAD4   691     1       184     708     709     188     0.      0.
CQUAD4   692     1       188     709     710     180     0.      0.
CQUAD4   693     1       180     710     711     179     0.      0.
CQUAD4   694     1       179     711     712     166     0.      0.
CQUAD4   695     1       166     712     713     164     0.      0.
CQUAD4   696     1       164     713     706     177     0.      0.
CQUAD4   697     1       146     714     715     154     0.      0.
CQUAD4   698     1       154     715     716     155     0.      0.
CQUAD4   699     1       155     716     717     159     0.      0.
CQUAD4   700     1       159     717     718     150     0.      0.
CQUAD4   701     1       150     718     719     148     0.      0.
CQUAD4   702     1       148     719     720     132     0.      0.
CQUAD4   703     1       132     720     721     130     0.      0.
CQUAD4   704     1       130     721     714     146     0.      0.
CQUAD4   705     1       237     722     723     245     0.      0.
CQUAD4   706     1       245     723     724     246     0.      0.
CQUAD4   707     1       246     724     725     250     0.      0.
CQUAD4   708     1       250     725     726     241     0.      0.
CQUAD4   709     1       241     726     727     239     0.      0.
CQUAD4   710     1       239     727     728     213     0.      0.
CQUAD4   711     1       213     728     729     211     0.      0.
CQUAD4   712     1       211     729     722     237     0.      0.
CQUAD4   713     1       275     730     731     282     0.      0.
CQUAD4   714     1       282     731     732     283     0.      0.
CQUAD4   715     1       283     732     733     285     0.      0.
CQUAD4   716     1       285     733     734     278     0.      0.
CQUAD4   717     1       278     734     735     276     0.      0.
CQUAD4   718     1       276     735     736     256     0.      0.
CQUAD4   719     1       256     736     737     255     0.      0.
CQUAD4   720     1       255     737     730     275     0.      0.
CQUAD4   721     1       310     738     739     317     0.      0.
CQUAD4   722     1       317     739     740     318     0.      0.
CQUAD4   723     1       318     740     741     320     0.      0.
CQUAD4   724     1       320     741     742     313     0.      0.
CQUAD4   725     1       313     742     743     311     0.      0.
CQUAD4   726     1       311     743     744     291     0.      0.
CQUAD4   727     1       291     744     745     290     0.      0.
CQUAD4   728     1       290     745     738     310     0.      0.
CQUAD4   729     1       343     746     747     350     0.      0.
CQUAD4   730     1       350     747     748     351     0.      0.
CQUAD4   731     1       351     748     749     353     0.      0.
CQUAD4   732     1       353     749     750     346     0.      0.
CQUAD4   733     1       346     750     751     344     0.      0.
CQUAD4   734     1       344     751     752     326     0.      0.
CQUAD4   735     1       326     752     753     325     0.      0.
CQUAD4   736     1       325     753     746     343     0.      0.
CQUAD4   737     1       200     754     755     205     0.      0.
CQUAD4   738     1       205     755     756     206     0.      0.
CQUAD4   739     1       206     756     757     208     0.      0.
CQUAD4   740     1       208     757     758     202     0.      0.
CQUAD4   741     1       202     758     759     201     0.      0.
CQUAD4   742     1       201     759     760     192     0.      0.
CQUAD4   743     1       192     760     761     191     0.      0.
CQUAD4   744     1       191     761     754     200     0.      0.
CQUAD4   745     1       6019    6018    766     765     0.      0.
CQUAD4   746     1       6018    6017    767     766     0.      0.
CQUAD4   747     1       6017    6016    768     767     0.      0.
CQUAD4   748     1       6016    6024    769     768     0.      0.
CQUAD4   749     1       6024    6015    770     769     0.      0.
CQUAD4   750     1       6015    6229    771     770     0.      0.
CQUAD4   751     1       6229    6252    772     771     0.      0.
CQUAD4   752     1       6252    6013    773     772     0.      0.
CQUAD4   753     1       6013    6269    774     773     0.      0.
CQUAD4   754     1       6269    6268    775     774     0.      0.
CQUAD4   755     1       6268    6267    776     775     0.      0.
CQUAD4   756     1       6267    6009    777     776     0.      0.
CQUAD4   757     1       6009    6266    778     777     0.      0.
CQUAD4   758     1       6266    6256    779     778     0.      0.
CQUAD4   759     1       6256    6265    780     779     0.      0.
CQUAD4   760     1       6265    6264    781     780     0.      0.
CQUAD4   761     1       6264    6004    782     781     0.      0.
CQUAD4   762     1       6004    6003    783     782     0.      0.
CQUAD4   763     1       6003    6002    784     783     0.      0.
CQUAD4   764     1       6002    6001    785     784     0.      0.
CQUAD4   765     1       6001    8003    786     785     0.      0.
CQUAD4   766     1       8003    8004    787     786     0.      0.
CQUAD4   767     1       8004    8008    788     787     0.      0.
CQUAD4   768     1       8008    8006    789     788     0.      0.
CQUAD4   769     1       789     8006    6279    790     0.      0.
CQUAD4   770     1       6279    8010    791     790     0.      0.
CQUAD4   771     1       770     792     794     769     0.      0.
CQUAD4   772     1       792     793     795     794     0.      0.
CQUAD4   773     1       769     794     796     768     0.      0.
CQUAD4   774     1       794     795     797     796     0.      0.
CQUAD4   775     1       768     796     798     767     0.      0.
CQUAD4   776     1       796     797     799     798     0.      0.
CQUAD4   777     1       767     798     800     766     0.      0.
CQUAD4   778     1       798     799     801     800     0.      0.
CQUAD4   779     1       766     800     802     765     0.      0.
CQUAD4   780     1       800     801     803     802     0.      0.
CQUAD4   781     1       784     804     809     783     0.      0.
CQUAD4   782     1       804     805     810     809     0.      0.
CQUAD4   783     1       805     806     811     810     0.      0.
CQUAD4   784     1       806     807     812     811     0.      0.
CQUAD4   785     1       807     808     813     812     0.      0.
CQUAD4   786     1       783     809     814     782     0.      0.
CQUAD4   787     1       809     810     815     814     0.      0.
CQUAD4   788     1       810     811     816     815     0.      0.
CQUAD4   789     1       811     812     817     816     0.      0.
CQUAD4   790     1       812     813     818     817     0.      0.
CQUAD4   791     1       782     814     819     781     0.      0.
CQUAD4   792     1       814     815     820     819     0.      0.
CQUAD4   793     1       815     816     821     820     0.      0.
CQUAD4   794     1       816     817     822     821     0.      0.
CQUAD4   795     1       817     818     823     822     0.      0.
CQUAD4   796     1       781     819     824     780     0.      0.
CQUAD4   797     1       819     820     825     824     0.      0.
CQUAD4   798     1       820     821     826     825     0.      0.
CQUAD4   799     1       821     822     827     826     0.      0.
CQUAD4   800     1       822     823     828     827     0.      0.
CQUAD4   801     1       780     824     829     779     0.      0.
CQUAD4   802     1       824     825     830     829     0.      0.
CQUAD4   803     1       825     826     831     830     0.      0.
CQUAD4   804     1       826     827     832     831     0.      0.
CQUAD4   805     1       827     828     833     832     0.      0.
CQUAD4   806     1       779     829     834     778     0.      0.
CQUAD4   807     1       829     830     835     834     0.      0.
CQUAD4   808     1       830     831     836     835     0.      0.
CQUAD4   809     1       831     832     837     836     0.      0.
CQUAD4   810     1       832     833     838     837     0.      0.
CQUAD4   811     1       778     834     839     777     0.      0.
CQUAD4   812     1       834     835     840     839     0.      0.
CQUAD4   813     1       835     836     841     840     0.      0.
CQUAD4   814     1       836     837     842     841     0.      0.
CQUAD4   815     1       837     838     843     842     0.      0.
CQUAD4   816     1       777     839     844     776     0.      0.
CQUAD4   817     1       839     840     845     844     0.      0.
CQUAD4   818     1       840     841     846     845     0.      0.
CQUAD4   819     1       841     842     847     846     0.      0.
CQUAD4   820     1       842     843     848     847     0.      0.
CQUAD4   821     1       776     844     849     775     0.      0.
CQUAD4   822     1       844     845     850     849     0.      0.
CQUAD4   823     1       845     846     851     850     0.      0.
CQUAD4   824     1       846     847     852     851     0.      0.
CQUAD4   825     1       847     848     853     852     0.      0.
CQUAD4   826     1       775     849     854     774     0.      0.
CQUAD4   827     1       849     850     855     854     0.      0.
CQUAD4   828     1       850     851     856     855     0.      0.
CQUAD4   829     1       851     852     857     856     0.      0.
CQUAD4   830     1       852     853     858     857     0.      0.
CQUAD4   831     1       774     854     859     773     0.      0.
CQUAD4   832     1       854     855     860     859     0.      0.
CQUAD4   833     1       855     856     861     860     0.      0.
CQUAD4   834     1       856     857     862     861     0.      0.
CQUAD4   835     1       857     858     863     862     0.      0.
CQUAD4   836     1       773     859     864     772     0.      0.
CQUAD4   837     1       859     860     865     864     0.      0.
CQUAD4   838     1       860     861     866     865     0.      0.
CQUAD4   839     1       861     862     867     866     0.      0.
CQUAD4   840     1       862     863     868     867     0.      0.
CQUAD4   841     1       772     864     869     771     0.      0.
CQUAD4   842     1       864     865     870     869     0.      0.
CQUAD4   843     1       865     866     871     870     0.      0.
CQUAD4   844     1       866     867     872     871     0.      0.
CQUAD4   845     1       867     868     873     872     0.      0.
CQUAD4   846     1       771     869     792     770     0.      0.
CQUAD4   847     1       869     870     793     792     0.      0.
CQUAD4   848     1       870     871     874     793     0.      0.
CQUAD4   849     1       871     872     875     874     0.      0.
CQUAD4   850     1       872     873     876     875     0.      0.
CQUAD4   851     1       790     877     886     789     0.      0.
CQUAD4   852     1       877     878     887     886     0.      0.
CQUAD4   853     1       878     879     888     887     0.      0.
CQUAD4   854     1       879     880     889     888     0.      0.
CQUAD4   855     1       880     881     890     889     0.      0.
CQUAD4   856     1       881     882     891     890     0.      0.
CQUAD4   857     1       882     883     892     891     0.      0.
CQUAD4   858     1       883     884     893     892     0.      0.
CQUAD4   859     1       884     885     894     893     0.      0.
CQUAD4   860     1       789     886     895     788     0.      0.
CQUAD4   861     1       886     887     896     895     0.      0.
CQUAD4   862     1       887     888     897     896     0.      0.
CQUAD4   863     1       888     889     898     897     0.      0.
CQUAD4   864     1       889     890     899     898     0.      0.
CQUAD4   865     1       890     891     900     899     0.      0.
CQUAD4   866     1       891     892     901     900     0.      0.
CQUAD4   867     1       892     893     902     901     0.      0.
CQUAD4   868     1       893     894     903     902     0.      0.
CQUAD4   869     1       788     895     904     787     0.      0.
CQUAD4   870     1       895     896     905     904     0.      0.
CQUAD4   871     1       896     897     906     905     0.      0.
CQUAD4   872     1       897     898     907     906     0.      0.
CQUAD4   873     1       898     899     908     907     0.      0.
CQUAD4   874     1       899     900     909     908     0.      0.
CQUAD4   875     1       900     901     910     909     0.      0.
CQUAD4   876     1       901     902     911     910     0.      0.
CQUAD4   877     1       902     903     912     911     0.      0.
CQUAD4   878     1       787     904     913     786     0.      0.
CQUAD4   879     1       904     905     914     913     0.      0.
CQUAD4   880     1       905     906     915     914     0.      0.
CQUAD4   881     1       906     907     916     915     0.      0.
CQUAD4   882     1       907     908     917     916     0.      0.
CQUAD4   883     1       908     909     918     917     0.      0.
CQUAD4   884     1       909     910     919     918     0.      0.
CQUAD4   885     1       910     911     920     919     0.      0.
CQUAD4   886     1       911     912     921     920     0.      0.
CQUAD4   887     1       786     913     922     785     0.      0.
CQUAD4   888     1       913     914     923     922     0.      0.
CQUAD4   889     1       914     915     924     923     0.      0.
CQUAD4   890     1       915     916     925     924     0.      0.
CQUAD4   891     1       916     917     926     925     0.      0.
CQUAD4   892     1       917     918     927     926     0.      0.
CQUAD4   893     1       918     919     928     927     0.      0.
CQUAD4   894     1       919     920     929     928     0.      0.
CQUAD4   895     1       920     921     930     929     0.      0.
CQUAD4   896     1       785     922     804     784     0.      0.
CQUAD4   897     1       922     923     805     804     0.      0.
CQUAD4   898     1       923     924     806     805     0.      0.
CQUAD4   899     1       924     925     807     806     0.      0.
CQUAD4   900     1       925     926     808     807     0.      0.
CQUAD4   901     1       926     927     931     808     0.      0.
CQUAD4   902     1       927     928     932     931     0.      0.
CQUAD4   903     1       928     929     933     932     0.      0.
CQUAD4   904     1       929     930     934     933     0.      0.
CQUAD4   905     1       935     936     884     885     0.      0.
CQUAD4   906     1       936     937     883     884     0.      0.
CQUAD4   907     1       937     938     882     883     0.      0.
CQUAD4   908     1       938     939     881     882     0.      0.
CQUAD4   909     1       939     940     880     881     0.      0.
CQUAD4   910     1       935     936     942     941     0.      0.
CQUAD4   911     1       936     937     943     942     0.      0.
CQUAD4   912     1       937     938     944     943     0.      0.
CQUAD4   913     1       938     939     945     944     0.      0.
CQUAD4   914     1       939     940     946     945     0.      0.
CQUAD4   915     1       947     948     954     953     0.      0.
CQUAD4   916     1       948     949     955     954     0.      0.
CQUAD4   917     1       949     950     956     955     0.      0.
CQUAD4   918     1       950     951     957     956     0.      0.
CQUAD4   919     1       951     952     958     957     0.      0.
CQUAD4   920     1       953     954     942     941     0.      0.
CQUAD4   921     1       954     955     943     942     0.      0.
CQUAD4   922     1       955     956     944     943     0.      0.
CQUAD4   923     1       956     957     945     944     0.      0.
CQUAD4   924     1       957     958     946     945     0.      0.
$ Elements and Element Properties for region : pshell.2
PSHELL   2       1      1.2      1               1
$ Pset: "pshell.2" will be imported as: "pshell.2"
CQUAD4   4177    2       12252   12228   12159   32885   0.      0.
CQUAD4   4181    2       12159   32885   32886   12160   0.      0.
CTRIA3   4182    2       12160   32886   12161   0.      0.
CTRIA3   4183    2       12177   12178   12203   0.      0.
CTRIA3   4184    2       12128   12127   12152   0.      0.
CQUAD4   12000   2       12005   12006   12039   12038   0.      0.
CQUAD4   12001   2       12105   12106   12131   12130   0.      0.
CQUAD4   12002   2       12006   12007   12040   12039   0.      0.
CQUAD4   12003   2       12106   12107   12132   12131   0.      0.
CQUAD4   12004   2       12007   12008   12041   12040   0.      0.
CQUAD4   12005   2       12107   12108   12133   12132   0.      0.
CQUAD4   12006   2       12067   12033   12034   12069   0.      0.
CQUAD4   12007   2       12069   12070   12035   12034   0.      0.
CQUAD4   12008   2       12036   12068   12070   12035   0.      0.
CQUAD4   12009   2       32888   12071   12068   12036   0.      0.
CQUAD4   12010   2       12038   12072   12071   32888   0.      0.
CQUAD4   12011   2       12039   12073   12072   12038   0.      0.
CQUAD4   12012   2       12039   12040   12075   12073   0.      0.
CQUAD4   12013   2       12041   12040   12075   12074   0.      0.
CQUAD4   12014   2       12067   12069   12101   12100   0.      0.
CQUAD4   12015   2       12101   12069   12070   12102   0.      0.
CQUAD4   12016   2       12102   12103   12068   12070   0.      0.
CQUAD4   12017   2       12068   12071   12104   12103   0.      0.
CQUAD4   12018   2       12071   12072   12105   12104   0.      0.
CQUAD4   12019   2       12072   12073   12106   12105   0.      0.
CQUAD4   12020   2       12073   12075   12107   12106   0.      0.
CQUAD4   12021   2       12075   12074   12108   12107   0.      0.
CQUAD4   12022   2       12008   12009   12042   12041   0.      0.
CQUAD4   12023   2       12041   12042   12076   12074   0.      0.
CQUAD4   12024   2       12074   12076   12109   12108   0.      0.
CQUAD4   12025   2       12108   12109   12134   12133   0.      0.
CQUAD4   12026   2       12009   12010   12043   12042   0.      0.
CQUAD4   12027   2       12042   12076   12077   12043   0.      0.
CQUAD4   12028   2       12076   12077   12110   12109   0.      0.
CQUAD4   12029   2       12109   12110   12135   12134   0.      0.
CQUAD4   12030   2       12010   12011   12044   12043   0.      0.
CQUAD4   12031   2       12043   12044   12078   12077   0.      0.
CQUAD4   12032   2       12077   12078   12111   12110   0.      0.
CQUAD4   12033   2       12110   12111   12136   12135   0.      0.
CQUAD4   12034   2       12011   12012   12045   12044   0.      0.
CQUAD4   12035   2       12044   12045   12079   12078   0.      0.
CQUAD4   12036   2       12078   12079   12112   12111   0.      0.
CQUAD4   12037   2       12111   12112   12137   12136   0.      0.
CQUAD4   12038   2       12012   12013   12046   12045   0.      0.
CQUAD4   12039   2       12045   12046   12080   12079   0.      0.
CQUAD4   12040   2       12079   12080   12113   12112   0.      0.
CQUAD4   12041   2       12112   12113   12138   12137   0.      0.
CQUAD4   12042   2       12013   12014   12047   12046   0.      0.
CQUAD4   12043   2       12046   12047   12081   12080   0.      0.
CQUAD4   12044   2       12014   12016   12049   12047   0.      0.
CQUAD4   12045   2       12049   12083   12081   12047   0.      0.
CQUAD4   12046   2       12016   12017   12050   12049   0.      0.
CQUAD4   12047   2       12049   12050   12084   12083   0.      0.
CQUAD4   12048   2       12083   12084   12117   12116   0.      0.
CQUAD4   12049   2       12017   12015   12048   12050   0.      0.
CQUAD4   12050   2       12048   12082   12084   12050   0.      0.
CQUAD4   12051   2       12082   12115   12117   12084   0.      0.
CQUAD4   12052   2       12015   12018   12051   12048   0.      0.
CQUAD4   12053   2       12048   12051   12085   12082   0.      0.
CQUAD4   12054   2       12082   12085   12118   12115   0.      0.
CQUAD4   12055   2       12115   12118   12140   12141   0.      0.
CQUAD4   12056   2       12018   12020   12053   12051   0.      0.
CQUAD4   12057   2       12051   12053   12087   12085   0.      0.
CQUAD4   12058   2       12085   12087   12119   12118   0.      0.
CQUAD4   12059   2       12118   12119   12142   12140   0.      0.
CQUAD4   12060   2       12020   12021   12054   12053   0.      0.
CQUAD4   12061   2       12053   12054   12088   12087   0.      0.
CQUAD4   12062   2       12087   12088   12120   12119   0.      0.
CQUAD4   12063   2       12119   12120   12143   12142   0.      0.
CQUAD4   12064   2       12021   12022   12055   12054   0.      0.
CQUAD4   12065   2       12054   12055   12089   12088   0.      0.
CQUAD4   12066   2       12088   12089   12121   12120   0.      0.
CQUAD4   12067   2       12120   12121   12144   12143   0.      0.
CQUAD4   12068   2       12022   12019   12052   12055   0.      0.
CQUAD4   12069   2       12055   12052   12086   12089   0.      0.
CQUAD4   12070   2       12089   12086   12114   12121   0.      0.
CQUAD4   12071   2       12121   12114   12145   12144   0.      0.
CQUAD4   12072   2       12147   12117   12115   12141   0.      0.
CQUAD4   12073   2       12147   12117   12116   12146   0.      0.
CQUAD4   12074   2       12146   12116   12122   12139   0.      0.
CQUAD4   12075   2       12122   12081   12083   12116   0.      0.
CQUAD4   12076   2       12019   12025   12057   12052   0.      0.
CQUAD4   12077   2       12052   12057   12094   12086   0.      0.
CQUAD4   12078   2       12086   12094   12123   12114   0.      0.
CQUAD4   12079   2       12114   12123   12149   12145   0.      0.
CQUAD4   12080   2       12025   12026   12058   12057   0.      0.
CQUAD4   12081   2       12057   12058   12091   12094   0.      0.
CQUAD4   12082   2       12094   12091   12125   12123   0.      0.
CQUAD4   12083   2       12123   12125   12151   12149   0.      0.
CQUAD4   12084   2       12026   12027   12059   12058   0.      0.
CQUAD4   12085   2       12058   12059   12092   12091   0.      0.
CQUAD4   12086   2       12091   12092   12126   12125   0.      0.
CQUAD4   12087   2       12125   12126   12148   12151   0.      0.
CQUAD4   12088   2       12027   12023   12056   12059   0.      0.
CQUAD4   12089   2       12059   12056   12090   12092   0.      0.
CQUAD4   12090   2       12092   12090   12124   12126   0.      0.
CQUAD4   12091   2       12126   12124   12150   12148   0.      0.
CQUAD4   12092   2       12023   12024   12060   12056   0.      0.
CQUAD4   12093   2       12056   12060   12093   12090   0.      0.
CQUAD4   12094   2       12090   12093   12127   12124   0.      0.
CQUAD4   12095   2       12124   12127   12152   12150   0.      0.
CQUAD4   12096   2       12024   12028   12061   12060   0.      0.
CQUAD4   12097   2       12060   12061   12095   12093   0.      0.
CQUAD4   12098   2       12028   12030   12063   12061   0.      0.
CQUAD4   12099   2       12030   12031   12064   12063   0.      0.
CQUAD4   12100   2       12031   12029   12062   12064   0.      0.
CQUAD4   12101   2       12029   12032   12065   12062   0.      0.
CQUAD4   12102   2       12061   12063   12098   12095   0.      0.
CQUAD4   12103   2       12063   12064   12096   12098   0.      0.
CQUAD4   12104   2       12093   12095   12128   12127   0.      0.
CQUAD4   12105   2       12095   12098   12129   12128   0.      0.
CQUAD4   12106   2       12098   12096   12097   12129   0.      0.
CQUAD4   12107   2       12096   12099   12062   12064   0.      0.
CQUAD4   12108   2       12062   12065   12066   12099   0.      0.
CTRIA3   12110   2       12097   12096   12099   0.      0.
CQUAD4   12111   2       12155   12103   12104   12156   0.      0.
CQUAD4   12112   2       12156   12104   12105   12130   0.      0.
CQUAD4   12113   2       12157   12100   12101   12154   0.      0.
CQUAD4   12114   2       12154   12101   12102   12158   0.      0.
CQUAD4   12115   2       12158   12102   12103   12155   0.      0.
CQUAD4   12116   2       12033   12000   12001   12034   0.      0.
CQUAD4   12117   2       12034   12001   12002   12035   0.      0.
CQUAD4   12118   2       12035   12002   12003   12036   0.      0.
CQUAD4   12119   2       12036   12003   12004   32888   0.      0.
CQUAD4   12120   2       32888   12004   12005   12038   0.      0.
CQUAD4   12121   2       12000   12001   12162   12166   0.      0.
CTRIA3   12122   2       12166   12162   12188   0.      0.
CQUAD4   12123   2       12162   12163   12189   12188   0.      0.
CQUAD4   12124   2       12189   12190   12164   12163   0.      0.
CQUAD4   12125   2       12163   12002   12001   12162   0.      0.
CQUAD4   12126   2       12163   12164   12003   12002   0.      0.
CQUAD4   12127   2       12190   12191   12165   12164   0.      0.
CQUAD4   12128   2       12164   12165   12004   12003   0.      0.
CQUAD4   12129   2       12191   12192   12167   12165   0.      0.
CQUAD4   12130   2       12165   12167   12005   12004   0.      0.
CQUAD4   12131   2       12192   12193   12168   12167   0.      0.
CQUAD4   12132   2       12167   12168   12006   12005   0.      0.
CQUAD4   12133   2       12193   12194   12169   12168   0.      0.
CQUAD4   12134   2       12168   12169   12007   12006   0.      0.
CQUAD4   12135   2       12194   12195   12174   12169   0.      0.
CQUAD4   12136   2       12169   12174   12008   12007   0.      0.
CQUAD4   12137   2       12195   12196   12170   12174   0.      0.
CQUAD4   12138   2       12170   12009   12008   12174   0.      0.
CQUAD4   12139   2       12196   12197   12171   12170   0.      0.
CQUAD4   12140   2       12171   12010   12009   12170   0.      0.
CQUAD4   12141   2       12197   12198   12172   12171   0.      0.
CQUAD4   12142   2       12171   12172   12011   12010   0.      0.
CQUAD4   12143   2       12198   12199   12173   12172   0.      0.
CQUAD4   12144   2       12173   12012   12011   12172   0.      0.
CQUAD4   12145   2       12199   12200   12175   12173   0.      0.
CQUAD4   12146   2       12173   12175   12013   12012   0.      0.
CQUAD4   12147   2       12200   12201   12176   12175   0.      0.
CQUAD4   12148   2       12176   12014   12013   12175   0.      0.
CQUAD4   12149   2       12201   12209   12184   12176   0.      0.
CQUAD4   12150   2       12176   12184   12016   12014   0.      0.
CQUAD4   12151   2       12209   12208   12183   12184   0.      0.
CQUAD4   12152   2       12183   12017   12016   12184   0.      0.
CQUAD4   12153   2       12208   12207   12182   12183   0.      0.
CQUAD4   12154   2       12182   12015   12017   12183   0.      0.
CQUAD4   12155   2       12207   12206   12181   12182   0.      0.
CQUAD4   12156   2       12181   12018   12015   12182   0.      0.
CQUAD4   12157   2       12206   12205   12180   12181   0.      0.
CQUAD4   12158   2       12018   12181   12180   12020   0.      0.
CQUAD4   12159   2       12205   12204   12179   12180   0.      0.
CQUAD4   12160   2       12180   12179   12021   12020   0.      0.
CQUAD4   12161   2       12204   12203   12178   12179   0.      0.
CQUAD4   12162   2       12179   12178   12022   12021   0.      0.
CQUAD4   12164   2       12178   12177   12019   12022   0.      0.
CQUAD4   12166   2       12177   12185   12025   12019   0.      0.
CQUAD4   12167   2       12185   12186   12026   12025   0.      0.
CQUAD4   12168   2       12186   12187   12027   12026   0.      0.
CQUAD4   12169   2       12080   12081   12122   12113   0.      0.
CQUAD4   12170   2       12138   12113   12122   12139   0.      0.
CQUAD4   12171   2       12157   12300   12210   12154   0.      0.
CTRIA3   12172   2       12300   12210   12234   0.      0.
CQUAD4   12173   2       12234   12235   12211   12210   0.      0.
CQUAD4   12174   2       12210   12211   12158   12154   0.      0.
CQUAD4   12175   2       12235   12236   12212   12211   0.      0.
CQUAD4   12176   2       12211   12212   12155   12158   0.      0.
CQUAD4   12177   2       12236   12237   12213   12212   0.      0.
CQUAD4   12178   2       12212   12213   12156   12155   0.      0.
CQUAD4   12179   2       12237   12238   12214   12213   0.      0.
CQUAD4   12180   2       12213   12214   12130   12156   0.      0.
CQUAD4   12181   2       12238   12239   12215   12214   0.      0.
CQUAD4   12182   2       12214   12215   12131   12130   0.      0.
CQUAD4   12183   2       12239   12240   12216   12215   0.      0.
CQUAD4   12184   2       12215   12216   12132   12131   0.      0.
CQUAD4   12185   2       12240   12241   12217   12216   0.      0.
CQUAD4   12186   2       12216   12217   12133   12132   0.      0.
CQUAD4   12187   2       12241   12242   12218   12217   0.      0.
CQUAD4   12188   2       12217   12218   12134   12133   0.      0.
CQUAD4   12189   2       12242   12243   12219   12218   0.      0.
CQUAD4   12190   2       12218   12219   12135   12134   0.      0.
CQUAD4   12191   2       12243   12244   12220   12219   0.      0.
CQUAD4   12192   2       12219   12220   12136   12135   0.      0.
CQUAD4   12193   2       12244   12245   12221   12220   0.      0.
CQUAD4   12194   2       12220   12221   12137   12136   0.      0.
CQUAD4   12195   2       12245   12246   12222   12221   0.      0.
CQUAD4   12196   2       12221   12222   12138   12137   0.      0.
CQUAD4   12197   2       12246   12247   12223   12222   0.      0.
CQUAD4   12198   2       12222   12223   12139   12138   0.      0.
CQUAD4   12199   2       12247   12248   12224   12223   0.      0.
CQUAD4   12200   2       12223   12224   12146   12139   0.      0.
CQUAD4   12201   2       12248   12249   12225   12224   0.      0.
CQUAD4   12202   2       12224   12225   12147   12146   0.      0.
CQUAD4   12203   2       12249   12250   12226   12225   0.      0.
CQUAD4   12204   2       12225   12226   12141   12147   0.      0.
CQUAD4   12205   2       12250   12251   12227   12226   0.      0.
CQUAD4   12206   2       12226   12227   12140   12141   0.      0.
CQUAD4   12207   2       12251   12252   12228   12227   0.      0.
CQUAD4   12208   2       12227   12228   12142   12140   0.      0.
CQUAD4   12210   2       12228   12159   12143   12142   0.      0.
CQUAD4   12212   2       12159   12160   12144   12143   0.      0.
CQUAD4   12214   2       12160   12161   12145   12144   0.      0.
CQUAD4   12216   2       12161   12229   12149   12145   0.      0.
CQUAD4   12217   2       12229   12230   12151   12149   0.      0.
CQUAD4   12218   2       12230   12231   12148   12151   0.      0.
CQUAD4   12219   2       12231   12232   12150   12148   0.      0.
CQUAD4   12220   2       12232   12233   12152   12150   0.      0.
CQUAD4   12224   2       12205   12273   12274   12206   0.      0.
CQUAD4   12225   2       12206   12207   12275   12274   0.      0.
CQUAD4   12226   2       12276   12275   12207   12208   0.      0.
CQUAD4   12227   2       12276   12277   12209   12208   0.      0.
CQUAD4   12228   2       12277   12270   12201   12209   0.      0.
CQUAD4   12229   2       12270   12269   12200   12201   0.      0.
CQUAD4   12230   2       12269   12268   12199   12200   0.      0.
CQUAD4   12231   2       12267   12198   12199   12268   0.      0.
CQUAD4   12232   2       12267   12266   12197   12198   0.      0.
CQUAD4   12233   2       12266   12265   12196   12197   0.      0.
CQUAD4   12234   2       12265   12264   12195   12196   0.      0.
CQUAD4   12235   2       12263   12264   12195   12194   0.      0.
CQUAD4   12236   2       12263   12262   12193   12194   0.      0.
CQUAD4   12237   2       12262   12261   12192   12193   0.      0.
CQUAD4   12238   2       12261   12260   12191   12192   0.      0.
CQUAD4   12239   2       12260   12259   12190   12191   0.      0.
CQUAD4   12240   2       12190   12189   12258   12259   0.      0.
CQUAD4   12241   2       12258   12257   12188   12189   0.      0.
CQUAD4   12245   2       12252   12251   12280   12281   0.      0.
CQUAD4   12246   2       12250   12251   12280   12299   0.      0.
CQUAD4   12247   2       12250   12249   12298   12299   0.      0.
CQUAD4   12248   2       12249   12248   12297   12298   0.      0.
CQUAD4   12249   2       12248   12247   12296   12297   0.      0.
CQUAD4   12250   2       12246   12247   12296   12295   0.      0.
CQUAD4   12251   2       12246   12245   12294   12295   0.      0.
CQUAD4   12252   2       12245   12244   12293   12294   0.      0.
CQUAD4   12253   2       12244   12243   12292   12293   0.      0.
CQUAD4   12254   2       12242   12243   12292   12291   0.      0.
CQUAD4   12255   2       12242   12241   12290   12291   0.      0.
CQUAD4   12256   2       12241   12240   12289   12290   0.      0.
CQUAD4   12257   2       12240   12289   12288   12239   0.      0.
CQUAD4   12258   2       12239   12238   12287   12288   0.      0.
CQUAD4   12259   2       12286   12287   12238   12237   0.      0.
CQUAD4   12260   2       12237   12286   12285   12236   0.      0.
CQUAD4   12261   2       12236   12235   12284   12285   0.      0.
CQUAD4   12262   2       12234   12235   12284   12279   0.      0.
CTRIA3   12263   2       12128   12152   12129   0.      0.
CQUAD4   24000   2       24022   24023   24024   24025   0.      0.
CQUAD4   24001   2       24021   24025   24024   24026   0.      0.
CQUAD4   24002   2       24021   24026   24027   24028   0.      0.
CQUAD4   24003   2       24026   24029   24030   24027   0.      0.
CQUAD4   24004   2       24029   24031   24032   24030   0.      0.
CTRIA3   24005   2       24015   24016   24033   0.      0.
CQUAD4   24006   2       24014   24028   24033   24015   0.      0.
CQUAD4   24007   2       24006   24007   24038   24039   0.      0.
CQUAD4   24008   2       24039   24017   24018   24040   0.      0.
CQUAD4   24009   2       24040   24041   24038   24039   0.      0.
CQUAD4   24010   2       24040   24018   24019   24042   0.      0.
CQUAD4   24011   2       24041   24043   24042   24040   0.      0.
CQUAD4   24012   2       24042   24019   24020   24044   0.      0.
CQUAD4   24013   2       24044   24042   24043   24045   0.      0.
CQUAD4   24014   2       24046   24044   24045   24047   0.      0.
CQUAD4   24015   2       24007   24008   24048   24038   0.      0.
CQUAD4   24016   2       24048   24049   24041   24038   0.      0.
CQUAD4   24017   2       24049   24050   24043   24041   0.      0.
CQUAD4   24018   2       24050   24051   24045   24043   0.      0.
CQUAD4   24019   2       24051   24052   24047   24045   0.      0.
CQUAD4   24020   2       24008   24009   24054   24048   0.      0.
CQUAD4   24021   2       24054   24055   24049   24048   0.      0.
CQUAD4   24022   2       24049   24055   24056   24050   0.      0.
CQUAD4   24023   2       24050   24056   24022   24051   0.      0.
CQUAD4   24024   2       24051   24022   24025   24052   0.      0.
CQUAD4   24025   2       24052   24025   24021   24053   0.      0.
CQUAD4   24026   2       24014   24053   24021   24028   0.      0.
CTRIA3   24027   2       24012   24046   24013   0.      0.
CQUAD4   24028   2       24046   24047   24014   24013   0.      0.
CQUAD4   24029   2       24047   24052   24053   24014   0.      0.
CQUAD4   24030   2       24009   24010   24057   24054   0.      0.
CQUAD4   24031   2       24054   24057   24058   24055   0.      0.
CQUAD4   24032   2       24055   24058   24059   24056   0.      0.
CQUAD4   24033   2       24011   24060   24057   24010   0.      0.
CQUAD4   24034   2       24058   24057   24060   24061   0.      0.
CQUAD4   24035   2       24058   24061   24062   24059   0.      0.
CQUAD4   24036   2       24011   24063   24064   24060   0.      0.
CQUAD4   24037   2       24060   24064   24065   24061   0.      0.
CQUAD4   24038   2       24061   24065   24066   24062   0.      0.
CQUAD4   24039   2       24056   24059   24023   24022   0.      0.
CQUAD4   24040   2       24062   24067   24023   24059   0.      0.
CQUAD4   24041   2       24062   24066   24068   24067   0.      0.
CQUAD4   24042   2       24065   24069   24078   24066   0.      0.
CQUAD4   24043   2       24069   24070   24077   24078   0.      0.
CQUAD4   24044   2       24070   24071   24075   24077   0.      0.
CQUAD4   24045   2       24071   24072   24076   24075   0.      0.
CQUAD4   24046   2       24072   24073   24074   24076   0.      0.
CQUAD4   24047   2       24066   24078   24083   24068   0.      0.
CQUAD4   24048   2       24078   24077   24082   24083   0.      0.
CQUAD4   24049   2       24077   24075   24081   24082   0.      0.
CQUAD4   24050   2       24075   24076   24080   24081   0.      0.
CQUAD4   24051   2       24076   24074   24079   24080   0.      0.
CQUAD4   24052   2       24068   24083   24087   24089   0.      0.
CQUAD4   24053   2       24083   24082   24088   24087   0.      0.
CQUAD4   24054   2       24082   24081   24084   24088   0.      0.
CQUAD4   24055   2       24081   24080   24085   24084   0.      0.
CQUAD4   24056   2       24080   24079   24086   24085   0.      0.
CQUAD4   24057   2       24089   24087   24093   24031   0.      0.
CQUAD4   24058   2       24087   24088   24094   24093   0.      0.
CQUAD4   24059   2       24088   24084   24092   24094   0.      0.
CQUAD4   24060   2       24084   24085   24090   24092   0.      0.
CQUAD4   24061   2       24085   24086   24091   24090   0.      0.
CQUAD4   24062   2       24031   24093   24095   24032   0.      0.
CQUAD4   24063   2       24093   24094   24096   24095   0.      0.
CQUAD4   24064   2       24094   24092   24097   24096   0.      0.
CQUAD4   24065   2       24092   24090   24098   24097   0.      0.
CQUAD4   24066   2       24090   24091   24099   24098   0.      0.
CQUAD4   24067   2       24032   24095   24101   24100   0.      0.
CQUAD4   24068   2       24095   24096   24102   24101   0.      0.
CQUAD4   24069   2       24096   24097   24103   24102   0.      0.
CQUAD4   24070   2       24097   24098   24104   24103   0.      0.
CQUAD4   24071   2       24098   24099   24105   24104   0.      0.
CQUAD4   24072   2       24100   24101   24107   24106   0.      0.
CQUAD4   24073   2       24101   24102   24108   24107   0.      0.
CQUAD4   24074   2       24102   24103   24109   24108   0.      0.
CQUAD4   24075   2       24103   24104   24110   24109   0.      0.
CQUAD4   24076   2       24104   24105   24111   24110   0.      0.
CQUAD4   24077   2       24028   24027   24112   24033   0.      0.
CQUAD4   24078   2       24112   24113   24114   24115   0.      0.
CQUAD4   24079   2       24115   24030   24027   24112   0.      0.
CQUAD4   24080   2       24030   24032   24100   24115   0.      0.
CQUAD4   24081   2       24115   24100   24106   24114   0.      0.
CQUAD4   24082   2       24074   24116   24117   24079   0.      0.
CQUAD4   24083   2       24118   24119   24128   24129   0.      0.
CQUAD4   24084   2       24119   24120   24127   24128   0.      0.
CQUAD4   24085   2       24120   24121   24126   24127   0.      0.
CQUAD4   24086   2       24121   24122   24125   24126   0.      0.
CQUAD4   24087   2       24122   24123   24124   24125   0.      0.
CQUAD4   24088   2       24129   24128   24134   24036   0.      0.
CQUAD4   24089   2       24128   24127   24133   24134   0.      0.
CQUAD4   24090   2       24127   24126   24132   24133   0.      0.
CQUAD4   24091   2       24126   24125   24131   24132   0.      0.
CQUAD4   24092   2       24125   24124   24130   24131   0.      0.
CQUAD4   24093   2       24036   24134   24135   24035   0.      0.
CQUAD4   24094   2       24134   24133   24136   24135   0.      0.
CQUAD4   24095   2       24133   24132   24137   24136   0.      0.
CQUAD4   24096   2       24132   24131   24138   24137   0.      0.
CQUAD4   24097   2       24131   24130   24139   24138   0.      0.
CQUAD4   24098   2       24035   24135   24141   24140   0.      0.
CQUAD4   24099   2       24135   24136   24142   24141   0.      0.
CQUAD4   24100   2       24136   24137   24143   24142   0.      0.
CQUAD4   24101   2       24137   24138   24144   24143   0.      0.
CQUAD4   24102   2       24138   24139   24145   24144   0.      0.
CQUAD4   24103   2       24140   24141   24150   24151   0.      0.
CQUAD4   24104   2       24141   24142   24149   24150   0.      0.
CQUAD4   24105   2       24142   24143   24148   24149   0.      0.
CQUAD4   24106   2       24143   24144   24147   24148   0.      0.
CQUAD4   24107   2       24144   24145   24146   24147   0.      0.
CQUAD4   24108   2       24151   24150   24154   24157   0.      0.
CQUAD4   24109   2       24150   24149   24155   24154   0.      0.
CQUAD4   24110   2       24149   24148   24156   24155   0.      0.
CQUAD4   24111   2       24148   24147   24152   24156   0.      0.
CQUAD4   24112   2       24147   24146   24153   24152   0.      0.
CQUAD4   24113   2       24157   24154   24159   24158   0.      0.
CQUAD4   24114   2       24154   24155   24160   24159   0.      0.
CQUAD4   24115   2       24155   24156   24161   24160   0.      0.
CQUAD4   24116   2       24156   24152   24162   24161   0.      0.
CQUAD4   24117   2       24152   24153   24163   24162   0.      0.
CQUAD4   24118   2       24091   24034   24037   24099   0.      0.
CQUAD4   24119   2       24034   24035   24036   24037   0.      0.
CQUAD4   24120   2       24099   24105   24164   24037   0.      0.
CQUAD4   24121   2       24037   24036   24129   24164   0.      0.
CQUAD4   24122   2       24164   24165   24118   24129   0.      0.
CQUAD4   24123   2       24164   24105   24111   24165   0.      0.
CQUAD4   24124   2       24116   24117   24151   24157   0.      0.
CQUAD4   24125   2       24157   24116   24166   24158   0.      0.
CQUAD4   24126   2       24166   24073   24074   24116   0.      0.
CQUAD4   24127   2       24064   24167   24069   24065   0.      0.
CQUAD4   24128   2       24167   24168   24169   24170   0.      0.
CQUAD4   24129   2       24167   24069   24070   24168   0.      0.
CQUAD4   24130   2       24168   24169   24171   24172   0.      0.
CQUAD4   24131   2       24172   24071   24070   24168   0.      0.
CQUAD4   24132   2       24172   24173   24072   24071   0.      0.
CQUAD4   24133   2       24172   24171   24174   24173   0.      0.
CQUAD4   24134   2       24174   24175   24176   24173   0.      0.
CQUAD4   24135   2       24173   24176   24073   24072   0.      0.
CQUAD4   24136   2       24176   24175   24177   24178   0.      0.
CQUAD4   24137   2       24073   24176   24178   24166   0.      0.
CQUAD4   24138   2       24166   24158   24179   24178   0.      0.
CQUAD4   24139   2       24177   24180   24179   24178   0.      0.
CQUAD4   24140   2       24180   24181   24182   24179   0.      0.
CQUAD4   24141   2       24179   24182   24159   24158   0.      0.
CQUAD4   24142   2       24182   24183   24160   24159   0.      0.
CQUAD4   24143   2       24182   24181   24184   24183   0.      0.
CQUAD4   24144   2       24186   24185   24184   24183   0.      0.
CQUAD4   24145   2       24183   24186   24161   24160   0.      0.
CQUAD4   24146   2       24186   24187   24162   24161   0.      0.
CQUAD4   24147   2       24186   24185   24188   24187   0.      0.
CQUAD4   24148   2       24188   24189   24190   24187   0.      0.
CQUAD4   24149   2       24190   24189   24191   24192   0.      0.
CQUAD4   24150   2       24192   24191   24193   24194   0.      0.
CQUAD4   24151   2       24162   24187   24190   24163   0.      0.
CQUAD4   24152   2       24163   24190   24192   24195   0.      0.
CQUAD4   24153   2       24195   24192   24194   24196   0.      0.
CQUAD4   24154   2       24194   24197   24198   24196   0.      0.
CQUAD4   24155   2       24163   24195   24199   24153   0.      0.
CQUAD4   24156   2       24196   24200   24199   24195   0.      0.
CQUAD4   24157   2       24196   24198   24201   24200   0.      0.
CQUAD4   24158   2       24198   24004   24202   24201   0.      0.
CQUAD4   24159   2       24198   24197   24005   24004   0.      0.
CQUAD4   24160   2       24146   24153   24199   24203   0.      0.
CQUAD4   24161   2       24203   24199   24200   24204   0.      0.
CQUAD4   24162   2       24200   24201   24205   24204   0.      0.
CQUAD4   24163   2       24201   24202   24206   24205   0.      0.
CQUAD4   24164   2       24202   24207   24208   24206   0.      0.
CQUAD4   24165   2       24204   24209   24210   24205   0.      0.
CQUAD4   24166   2       24205   24206   24211   24210   0.      0.
CQUAD4   24167   2       24206   24208   24212   24211   0.      0.
CQUAD4   24168   2       24208   24003   24213   24212   0.      0.
CQUAD4   24169   2       24214   24209   24210   24215   0.      0.
CQUAD4   24170   2       24215   24210   24211   24216   0.      0.
CQUAD4   24171   2       24211   24212   24217   24216   0.      0.
CQUAD4   24172   2       24212   24213   24218   24217   0.      0.
CQUAD4   24173   2       24213   24219   24220   24218   0.      0.
CQUAD4   24174   2       24139   24221   24222   24130   0.      0.
CQUAD4   24175   2       24221   24214   24223   24222   0.      0.
CQUAD4   24176   2       24214   24215   24224   24223   0.      0.
CQUAD4   24177   2       24215   24216   24225   24224   0.      0.
CQUAD4   24178   2       24216   24217   24226   24225   0.      0.
CQUAD4   24179   2       24217   24218   24227   24226   0.      0.
CQUAD4   24180   2       24218   24220   24228   24227   0.      0.
CQUAD4   24181   2       24220   24002   24229   24228   0.      0.
CQUAD4   24182   2       24130   24222   24230   24124   0.      0.
CQUAD4   24183   2       24124   24230   24231   24123   0.      0.
CQUAD4   24184   2       24230   24222   24223   24232   0.      0.
CQUAD4   24185   2       24230   24232   24233   24231   0.      0.
CQUAD4   24186   2       24232   24223   24224   24234   0.      0.
CQUAD4   24187   2       24234   24235   24233   24232   0.      0.
CQUAD4   24188   2       24234   24236   24225   24224   0.      0.
CQUAD4   24189   2       24234   24236   24237   24235   0.      0.
CQUAD4   24190   2       24236   24238   24239   24237   0.      0.
CQUAD4   24191   2       24236   24225   24226   24238   0.      0.
CQUAD4   24192   2       24227   24226   24238   24240   0.      0.
CQUAD4   24193   2       24227   24228   24241   24240   0.      0.
CQUAD4   24194   2       24240   24242   24239   24238   0.      0.
CQUAD4   24195   2       24241   24240   24242   24243   0.      0.
CQUAD4   24196   2       24241   24244   24229   24228   0.      0.
CQUAD4   24197   2       24241   24244   24245   24243   0.      0.
CQUAD4   24198   2       24244   24246   24247   24245   0.      0.
CQUAD4   24199   2       24247   24246   24001   24248   0.      0.
CQUAD4   24200   2       24229   24000   24246   24244   0.      0.
CTRIA3   24201   2       24004   24202   24207   0.      0.
CTRIA3   24202   2       24207   24208   24003   0.      0.
CTRIA3   24203   2       24003   24213   24219   0.      0.
CTRIA3   24204   2       24219   24220   24002   0.      0.
CTRIA3   24205   2       24002   24229   24000   0.      0.
CTRIA3   24206   2       24000   24246   24001   0.      0.
CTRIA3   24207   2       24249   24250   24251   0.      0.
CQUAD4   24208   2       24252   24253   24254   24255   0.      0.
CQUAD4   24209   2       24255   24254   24256   24257   0.      0.
CQUAD4   24210   2       24257   24255   24258   24259   0.      0.
CQUAD4   24211   2       24259   24260   24261   24258   0.      0.
CQUAD4   24212   2       24259   24017   24018   24260   0.      0.
CQUAD4   24213   2       24260   24018   24019   24262   0.      0.
CQUAD4   24214   2       24262   24019   24020   24263   0.      0.
CQUAD4   24215   2       24262   24250   24261   24260   0.      0.
CQUAD4   24216   2       24261   24264   24249   24250   0.      0.
CQUAD4   24217   2       24250   24262   24263   24251   0.      0.
CQUAD4   24218   2       24261   24258   24265   24264   0.      0.
CQUAD4   24219   2       24265   24258   24255   24252   0.      0.
CTRIA3   24220   2       24257   24259   24017   0.      0.
CQUAD4   24221   2       24266   24273   24278   24267   0.      0.
CQUAD4   24222   2       24273   24274   24279   24278   0.      0.
CQUAD4   24223   2       24274   24275   24280   24279   0.      0.
CQUAD4   24224   2       24275   24276   24281   24280   0.      0.
CQUAD4   24225   2       24276   24277   24282   24281   0.      0.
CQUAD4   24226   2       24277   24006   24007   24282   0.      0.
CQUAD4   24227   2       24267   24278   24283   24268   0.      0.
CQUAD4   24228   2       24278   24279   24284   24283   0.      0.
CQUAD4   24229   2       24279   24280   24285   24284   0.      0.
CQUAD4   24230   2       24280   24281   24286   24285   0.      0.
CQUAD4   24231   2       24281   24282   24287   24286   0.      0.
CQUAD4   24232   2       24282   24007   24008   24287   0.      0.
CQUAD4   24233   2       24268   24283   24288   24269   0.      0.
CQUAD4   24234   2       24283   24284   24289   24288   0.      0.
CQUAD4   24235   2       24284   24285   24290   24289   0.      0.
CQUAD4   24236   2       24285   24286   24291   24290   0.      0.
CQUAD4   24237   2       24286   24287   24292   24291   0.      0.
CQUAD4   24238   2       24287   24008   24009   24292   0.      0.
CQUAD4   24239   2       24269   24288   24293   24270   0.      0.
CQUAD4   24240   2       24288   24289   24294   24293   0.      0.
CQUAD4   24241   2       24289   24290   24295   24294   0.      0.
CQUAD4   24242   2       24290   24291   24296   24295   0.      0.
CQUAD4   24243   2       24291   24292   24297   24296   0.      0.
CQUAD4   24244   2       24292   24009   24010   24297   0.      0.
CQUAD4   24245   2       24270   24293   24298   24271   0.      0.
CQUAD4   24246   2       24293   24294   24299   24298   0.      0.
CQUAD4   24247   2       24294   24295   24300   24299   0.      0.
CQUAD4   24248   2       24295   24296   24301   24300   0.      0.
CQUAD4   24249   2       24296   24297   24302   24301   0.      0.
CQUAD4   24250   2       24297   24010   24011   24302   0.      0.
CQUAD4   24251   2       24271   24298   24303   24272   0.      0.
CQUAD4   24252   2       24298   24299   24304   24303   0.      0.
CQUAD4   24253   2       24299   24300   24305   24304   0.      0.
CQUAD4   24254   2       24300   24301   24306   24305   0.      0.
CQUAD4   24255   2       24301   24302   24307   24306   0.      0.
CQUAD4   24256   2       24302   24011   24063   24307   0.      0.
CQUAD4   24257   2       24308   24266   24267   24310   0.      0.
CQUAD4   24258   2       24309   24310   24312   24311   0.      0.
CQUAD4   24259   2       24310   24267   24268   24312   0.      0.
CQUAD4   24260   2       24311   24312   24314   24313   0.      0.
CQUAD4   24261   2       24312   24268   24269   24314   0.      0.
CQUAD4   24262   2       24313   24314   24316   24315   0.      0.
CQUAD4   24263   2       24314   24269   24270   24316   0.      0.
CQUAD4   24264   2       24315   24316   24318   24317   0.      0.
CQUAD4   24265   2       24316   24270   24271   24318   0.      0.
CQUAD4   24266   2       24318   24271   24272   24319   0.      0.
CTRIA3   24267   2       24308   24309   24310   0.      0.
CTRIA3   24268   2       24317   24319   24318   0.      0.
CQUAD4   24269   2       24325   24326   24327   24320   0.      0.
CQUAD4   24270   2       24326   24328   24329   24327   0.      0.
CQUAD4   24271   2       24327   24330   24321   24320   0.      0.
CQUAD4   24272   2       24330   24327   24329   24331   0.      0.
CQUAD4   24273   2       24329   24332   24333   24331   0.      0.
CQUAD4   24274   2       24334   24335   24000   24001   0.      0.
CQUAD4   24275   2       24000   24002   24336   24335   0.      0.
CQUAD4   24276   2       24332   24335   24336   24333   0.      0.
CQUAD4   24277   2       24324   24323   24337   24341   0.      0.
CQUAD4   24278   2       24337   24338   24342   24341   0.      0.
CQUAD4   24279   2       24338   24339   24343   24342   0.      0.
CQUAD4   24280   2       24339   24340   24344   24343   0.      0.
CQUAD4   24281   2       24340   24004   24005   24344   0.      0.
CQUAD4   24282   2       24337   24323   24345   24346   0.      0.
CQUAD4   24283   2       24337   24346   24347   24338   0.      0.
CQUAD4   24284   2       24338   24347   24348   24339   0.      0.
CQUAD4   24285   2       24348   24349   24340   24339   0.      0.
CQUAD4   24286   2       24349   24340   24004   24207   0.      0.
CQUAD4   24287   2       24349   24350   24003   24207   0.      0.
CQUAD4   24288   2       24349   24348   24351   24350   0.      0.
CQUAD4   24289   2       24348   24347   24352   24351   0.      0.
CQUAD4   24290   2       24352   24347   24346   24353   0.      0.
CQUAD4   24291   2       24353   24322   24345   24346   0.      0.
CQUAD4   24292   2       24322   24354   24355   24353   0.      0.
CQUAD4   24293   2       24353   24355   24356   24352   0.      0.
CQUAD4   24294   2       24352   24356   24357   24351   0.      0.
CQUAD4   24295   2       24350   24358   24357   24351   0.      0.
CQUAD4   24296   2       24350   24358   24219   24003   0.      0.
CQUAD4   24297   2       24358   24336   24002   24219   0.      0.
CQUAD4   24298   2       24358   24357   24333   24336   0.      0.
CQUAD4   24299   2       24357   24356   24331   24333   0.      0.
CQUAD4   24300   2       24356   24355   24330   24331   0.      0.
CQUAD4   24301   2       24355   24354   24321   24330   0.      0.
CQUAD4   24302   2       24359   24360   24361   24362   0.      0.
CQUAD4   24303   2       24363   24359   24362   24364   0.      0.
CQUAD4   24304   2       24359   24365   24366   24363   0.      0.
CQUAD4   24305   2       24364   24363   24367   24368   0.      0.
CQUAD4   24306   2       24367   24363   24366   24369   0.      0.
CQUAD4   24307   2       24367   24369   24370   24371   0.      0.
CQUAD4   24308   2       24371   24367   24368   24378   0.      0.
CQUAD4   24309   2       24371   24372   24373   24378   0.      0.
CQUAD4   24310   2       24374   24361   24362   24375   0.      0.
CQUAD4   24311   2       24375   24362   24364   24376   0.      0.
CQUAD4   24312   2       24376   24364   24368   24377   0.      0.
CQUAD4   24313   2       24379   24374   24375   24380   0.      0.
CQUAD4   24314   2       24380   24375   24376   24381   0.      0.
CQUAD4   24315   2       24381   24376   24377   24321   0.      0.
CQUAD4   24316   2       24382   24379   24380   24383   0.      0.
CQUAD4   24317   2       24383   24380   24381   24322   0.      0.
CQUAD4   24318   2       24379   24384   24385   24374   0.      0.
CQUAD4   24319   2       24385   24386   24361   24374   0.      0.
CQUAD4   24320   2       24384   24379   24382   24387   0.      0.
CQUAD4   24321   2       24387   24388   24389   24382   0.      0.
CQUAD4   24322   2       24388   24390   24391   24389   0.      0.
CQUAD4   24323   2       24388   24392   24393   24387   0.      0.
CQUAD4   24324   2       24393   24394   24384   24387   0.      0.
CQUAD4   24325   2       24394   24395   24385   24384   0.      0.
CQUAD4   24326   2       24389   24323   24383   24382   0.      0.
CQUAD4   24327   2       24323   24389   24391   24324   0.      0.
CTRIA3   24328   2       24385   24395   24386   0.      0.
CTRIA3   24329   2       24360   24365   24359   0.      0.
CTRIA3   24330   2       24371   24370   24372   0.      0.
CTRIA3   24331   2       24392   24390   24388   0.      0.
CQUAD4   24332   2       24320   24377   24368   24378   0.      0.
CTRIA3   24333   2       24323   24383   24345   0.      0.
CTRIA3   24334   2       24345   24383   24322   0.      0.
CTRIA3   24335   2       24322   24381   24354   0.      0.
CTRIA3   24336   2       24354   24381   24321   0.      0.
CTRIA3   24337   2       24321   24377   24320   0.      0.
CQUAD4   24338   2       24396   24397   24402   24401   0.      0.
CQUAD4   24339   2       24397   24398   24403   24402   0.      0.
CQUAD4   24340   2       24398   24399   24404   24403   0.      0.
CQUAD4   24341   2       24399   24400   24405   24404   0.      0.
CQUAD4   24342   2       24401   24402   24407   24406   0.      0.
CQUAD4   24343   2       24402   24403   24408   24407   0.      0.
CQUAD4   24344   2       24403   24404   24409   24408   0.      0.
CQUAD4   24345   2       24404   24405   24410   24409   0.      0.
CQUAD4   24346   2       24406   24407   24412   24411   0.      0.
CQUAD4   24347   2       24407   24408   24413   24412   0.      0.
CQUAD4   24348   2       24408   24409   24414   24413   0.      0.
CQUAD4   24349   2       24409   24410   24415   24414   0.      0.
CQUAD4   24350   2       24411   24412   24417   24416   0.      0.
CQUAD4   24351   2       24412   24413   24418   24417   0.      0.
CQUAD4   24352   2       24413   24414   24419   24418   0.      0.
CQUAD4   24353   2       24414   24415   24420   24419   0.      0.
CQUAD4   24354   2       24416   24417   24013   24012   0.      0.
CQUAD4   24355   2       24417   24418   24014   24013   0.      0.
CQUAD4   24356   2       24418   24419   24015   24014   0.      0.
CQUAD4   24357   2       24419   24420   24016   24015   0.      0.
CQUAD4   24358   2       24421   24422   24427   24426   0.      0.
CQUAD4   24359   2       24422   24423   24428   24427   0.      0.
CQUAD4   24360   2       24423   24424   24429   24428   0.      0.
CQUAD4   24361   2       24424   24425   24430   24429   0.      0.
CQUAD4   24362   2       24426   24427   24432   24431   0.      0.
CQUAD4   24363   2       24427   24428   24433   24432   0.      0.
CQUAD4   24364   2       24428   24429   24434   24433   0.      0.
CQUAD4   24365   2       24429   24430   24435   24434   0.      0.
CQUAD4   24366   2       24431   24432   24397   24396   0.      0.
CQUAD4   24367   2       24432   24433   24398   24397   0.      0.
CQUAD4   24368   2       24433   24434   24399   24398   0.      0.
CQUAD4   24369   2       24434   24435   24400   24399   0.      0.
CQUAD4   24370   2       24181   24436   24437   24184   0.      0.
CQUAD4   24371   2       24438   24437   24184   24185   0.      0.
CQUAD4   24372   2       24185   24438   24439   24188   0.      0.
CQUAD4   24373   2       24439   24440   24189   24188   0.      0.
CQUAD4   24374   2       24440   24441   24191   24189   0.      0.
CQUAD4   24375   2       24441   24442   24193   24191   0.      0.
CQUAD4   24376   2       24170   24443   24444   24169   0.      0.
CQUAD4   24377   2       24444   24445   24171   24169   0.      0.
CQUAD4   24378   2       24445   24446   24174   24171   0.      0.
CQUAD4   24379   2       24446   24447   24175   24174   0.      0.
CQUAD4   24380   2       24447   24448   24177   24175   0.      0.
CQUAD4   24381   2       24449   24180   24177   24448   0.      0.
CQUAD4   24382   2       24449   24436   24181   24180   0.      0.
CQUAD4   24383   2       24248   24450   24451   24247   0.      0.
CQUAD4   24384   2       24247   24451   24452   24245   0.      0.
CQUAD4   24385   2       24245   24452   24453   24243   0.      0.
CQUAD4   24386   2       24243   24453   24454   24242   0.      0.
CQUAD4   24387   2       24242   24454   24455   24239   0.      0.
CQUAD4   24388   2       24239   24455   24456   24237   0.      0.
CQUAD4   24389   2       24237   24456   24457   24235   0.      0.
CQUAD4   24390   2       24235   24457   24458   24233   0.      0.
CQUAD4   24391   2       24233   24458   24459   24231   0.      0.
CQUAD4   24392   2       24231   24459   24460   24123   0.      0.
CQUAD4   24393   2       24123   24460   24461   24122   0.      0.
CQUAD4   24394   2       24122   24461   24462   24121   0.      0.
CQUAD4   24395   2       24121   24462   24463   24120   0.      0.
CQUAD4   24396   2       24120   24463   24464   24119   0.      0.
CQUAD4   24397   2       24119   24464   24465   24118   0.      0.
CQUAD4   24398   2       24118   24465   24466   24165   0.      0.
CQUAD4   24399   2       24165   24466   24467   24111   0.      0.
CQUAD4   24400   2       24111   24467   24468   24110   0.      0.
CQUAD4   24401   2       24110   24468   24469   24109   0.      0.
CQUAD4   24402   2       24109   24469   24470   24108   0.      0.
CQUAD4   24403   2       24108   24470   24471   24107   0.      0.
CQUAD4   24404   2       24107   24471   24472   24106   0.      0.
CQUAD4   24405   2       24106   24472   24473   24114   0.      0.
CQUAD4   24406   2       24114   24473   24474   24113   0.      0.
CQUAD4   24407   2       24373   24378   24320   24325   0.      0.
$ Elements and Element Properties for region : pshell.3
PSHELL   3       1      1.2      1               1
$ Pset: "pshell.3" will be imported as: "pshell.3"
CQUAD4   14000   3       14026   14027   14024   14023   0.      0.
CQUAD4   14001   3       14024   14019   14018   14023   0.      0.
CQUAD4   14002   3       14018   14019   14007   14006   0.      0.
CQUAD4   14003   3       14028   14027   14033   14032   0.      0.
CQUAD4   14004   3       14027   14024   14034   14028   0.      0.
CQUAD4   14005   3       14034   14024   14019   14020   0.      0.
CQUAD4   14006   3       14020   14019   14007   14008   0.      0.
CQUAD4   14007   3       14034   14028   14029   14025   0.      0.
CTRIA3   14008   3       14007   14006   14000   0.      0.
CTRIA3   14009   3       14001   14000   14014   0.      0.
CQUAD4   14010   3       14008   14007   14000   14001   0.      0.
CQUAD4   14011   3       14001   14002   14015   14014   0.      0.
CQUAD4   14012   3       14001   14008   14009   14002   0.      0.
CQUAD4   14013   3       14002   14015   14016   14003   0.      0.
CQUAD4   14014   3       14003   14002   14009   14010   0.      0.
CQUAD4   14015   3       14010   14011   14004   14003   0.      0.
CQUAD4   14016   3       14003   14016   14017   14004   0.      0.
CQUAD4   14017   3       14004   14005   14031   14011   0.      0.
CQUAD4   14018   3       14011   14010   14021   14022   0.      0.
CQUAD4   14019   3       14008   14009   14035   14020   0.      0.
CQUAD4   14020   3       14020   14035   14025   14034   0.      0.
CQUAD4   14021   3       14035   14009   14010   14021   0.      0.
CQUAD4   14022   3       14021   14030   14025   14035   0.      0.
CTRIA3   14023   3       14030   14021   14022   0.      0.
CTRIA3   14024   3       14030   14029   14025   0.      0.
CQUAD4   14025   3       14037   14026   14027   14033   0.      0.
CQUAD4   14026   3       14004   14017   14036   14005   0.      0.
CTRIA3   14027   3       14011   14022   14031   0.      0.
CTRIA3   14028   3       14028   14032   14029   0.      0.
CQUAD4   14029   3       14038   14031   14022   14039   0.      0.
CQUAD4   14030   3       14039   14022   14030   14041   0.      0.
CQUAD4   14031   3       14041   14030   14029   14043   0.      0.
CQUAD4   14032   3       14043   14029   14032   14045   0.      0.
CQUAD4   14033   3       14047   14038   14039   14048   0.      0.
CQUAD4   14034   3       14048   14039   14041   14049   0.      0.
CQUAD4   14035   3       14049   14041   14043   14050   0.      0.
CQUAD4   14036   3       14050   14043   14045   14051   0.      0.
CQUAD4   14500   3       14524   14535   14522   14521   0.      0.
CQUAD4   14501   3       14522   14517   14516   14521   0.      0.
CQUAD4   14502   3       14516   14517   14507   14506   0.      0.
CQUAD4   14503   3       14525   14535   14530   14529   0.      0.
CQUAD4   14504   3       14535   14522   14531   14525   0.      0.
CQUAD4   14505   3       14531   14522   14517   14518   0.      0.
CQUAD4   14506   3       14518   14517   14507   14508   0.      0.
CQUAD4   14507   3       14531   14525   14526   14523   0.      0.
CQUAD4   14508   3       14508   14507   14500   14501   0.      0.
CQUAD4   14509   3       14501   14502   14513   14512   0.      0.
CQUAD4   14510   3       14501   14508   14509   14502   0.      0.
CQUAD4   14511   3       14502   14513   14514   14503   0.      0.
CQUAD4   14512   3       14503   14502   14509   14510   0.      0.
CQUAD4   14513   3       14510   14511   14504   14503   0.      0.
CQUAD4   14514   3       14503   14514   14515   14504   0.      0.
CQUAD4   14515   3       14504   14505   14528   14511   0.      0.
CQUAD4   14516   3       14511   14510   14519   14520   0.      0.
CQUAD4   14517   3       14508   14509   14532   14518   0.      0.
CQUAD4   14518   3       14518   14532   14523   14531   0.      0.
CQUAD4   14519   3       14532   14509   14510   14519   0.      0.
CQUAD4   14520   3       14519   14527   14523   14532   0.      0.
CTRIA3   14521   3       14527   14519   14520   0.      0.
CTRIA3   14522   3       14527   14526   14523   0.      0.
CQUAD4   14523   3       14534   14524   14535   14530   0.      0.
CQUAD4   14524   3       14504   14515   14533   14505   0.      0.
CTRIA3   14525   3       14500   14507   14536   0.      0.
CTRIA3   14526   3       14536   14507   14506   0.      0.
CTRIA3   14527   3       14500   14537   14501   0.      0.
CTRIA3   14528   3       14501   14512   14537   0.      0.
CTRIA3   14529   3       14528   14511   14520   0.      0.
CTRIA3   14530   3       14526   14525   14529   0.      0.
CQUAD4   14531   3       14538   14539   14520   14528   0.      0.
CQUAD4   14532   3       14539   14540   14527   14520   0.      0.
CQUAD4   14533   3       14540   14541   14526   14527   0.      0.
CQUAD4   14534   3       14541   14542   14529   14526   0.      0.
CQUAD4   14535   3       14548   14549   14539   14538   0.      0.
CQUAD4   14536   3       14549   14550   14540   14539   0.      0.
CQUAD4   14537   3       14550   14551   14541   14540   0.      0.
CQUAD4   14538   3       14551   14552   14542   14541   0.      0.
$ Elements and Element Properties for region : pshell.4
PSHELL   4       1      1.2      1               1
$ Pset: "pshell.4" will be imported as: "pshell.4"
CQUAD4   18000   4       18006   18038   18004   18003   0.      0.
CQUAD4   18001   4       18007   18039   18038   18006   0.      0.
CQUAD4   18002   4       18008   18040   18039   18007   0.      0.
CQUAD4   18003   4       18009   18041   18040   18008   0.      0.
CQUAD4   18004   4       18010   18042   18041   18009   0.      0.
CQUAD4   18005   4       18011   18043   18042   18010   0.      0.
CQUAD4   18006   4       18012   18044   18043   18011   0.      0.
CQUAD4   18007   4       18013   18045   18044   18012   0.      0.
CQUAD4   18008   4       18014   18046   18045   18013   0.      0.
CQUAD4   18009   4       18015   18047   18046   18014   0.      0.
CQUAD4   18010   4       18005   18048   18047   18015   0.      0.
CQUAD4   18011   4       18017   18049   18048   18005   0.      0.
CQUAD4   18012   4       18016   18050   18049   18017   0.      0.
CQUAD4   18013   4       18019   18051   18050   18016   0.      0.
CQUAD4   18014   4       18018   18052   18051   18019   0.      0.
CQUAD4   18015   4       18021   18053   18052   18018   0.      0.
CQUAD4   18016   4       18022   18054   18053   18021   0.      0.
CQUAD4   18017   4       18023   18055   18054   18022   0.      0.
CQUAD4   18018   4       18024   18056   18055   18023   0.      0.
CQUAD4   18019   4       18025   18057   18056   18024   0.      0.
CQUAD4   18020   4       18020   18058   18057   18025   0.      0.
CQUAD4   18021   4       18027   18059   18058   18020   0.      0.
CQUAD4   18022   4       18026   18060   18059   18027   0.      0.
CQUAD4   18023   4       18029   18061   18060   18026   0.      0.
CQUAD4   18024   4       18030   18062   18061   18029   0.      0.
CQUAD4   18025   4       18031   18000   18062   18030   0.      0.
CQUAD4   18026   4       18032   18133   18000   18031   0.      0.
CQUAD4   18027   4       18033   18001   18133   18032   0.      0.
CQUAD4   18028   4       18034   18063   18001   18033   0.      0.
CQUAD4   18029   4       18035   18064   18063   18034   0.      0.
CQUAD4   18030   4       18036   18065   18064   18035   0.      0.
CQUAD4   18031   4       18028   18066   18065   18036   0.      0.
CQUAD4   18032   4       18037   18080   18066   18028   0.      0.
CQUAD4   18033   4       18002   18067   18080   18037   0.      0.
CQUAD4   18034   4       18038   18067   18002   18004   0.      0.
CQUAD4   18035   4       18039   18069   18068   18038   0.      0.
CQUAD4   18036   4       18040   18070   18069   18039   0.      0.
CQUAD4   18037   4       18041   18071   18070   18040   0.      0.
CQUAD4   18038   4       18042   18072   18071   18041   0.      0.
CQUAD4   18039   4       18043   18073   18072   18042   0.      0.
CQUAD4   18040   4       18044   18074   18073   18043   0.      0.
CQUAD4   18041   4       18045   18075   18074   18044   0.      0.
CQUAD4   18042   4       18046   18076   18075   18045   0.      0.
CQUAD4   18043   4       18047   18077   18076   18046   0.      0.
CQUAD4   18044   4       18048   18078   18077   18047   0.      0.
CQUAD4   18045   4       18049   18079   18078   18048   0.      0.
CQUAD4   18046   4       18050   18089   18079   18049   0.      0.
CQUAD4   18047   4       18068   18080   18067   18038   0.      0.
CQUAD4   18048   4       18066   18080   18068   18065   0.      0.
CQUAD4   18049   4       18069   18064   18065   18068   0.      0.
CQUAD4   18050   4       18070   18063   18064   18069   0.      0.
CQUAD4   18051   4       18071   18081   18063   18070   0.      0.
CQUAD4   18052   4       18072   18082   18081   18071   0.      0.
CQUAD4   18053   4       18073   18083   18082   18072   0.      0.
CQUAD4   18054   4       18074   18084   18083   18073   0.      0.
CQUAD4   18055   4       18075   18085   18084   18074   0.      0.
CQUAD4   18056   4       18076   18086   18085   18075   0.      0.
CQUAD4   18057   4       18077   18087   18086   18076   0.      0.
CQUAD4   18058   4       18078   18088   18087   18077   0.      0.
CQUAD4   18059   4       18079   18107   18088   18078   0.      0.
CQUAD4   18060   4       18060   18090   18058   18059   0.      0.
CQUAD4   18061   4       18061   18132   18090   18060   0.      0.
CQUAD4   18062   4       18062   18091   18132   18061   0.      0.
CQUAD4   18063   4       18000   18092   18091   18062   0.      0.
CQUAD4   18064   4       18133   18093   18092   18000   0.      0.
CQUAD4   18065   4       18001   18094   18093   18133   0.      0.
CQUAD4   18066   4       18081   18094   18001   18063   0.      0.
CQUAD4   18067   4       18090   18095   18057   18058   0.      0.
CQUAD4   18068   4       18132   18096   18095   18090   0.      0.
CQUAD4   18069   4       18091   18097   18096   18132   0.      0.
CQUAD4   18070   4       18092   18099   18097   18091   0.      0.
CQUAD4   18071   4       18093   18098   18099   18092   0.      0.
CQUAD4   18072   4       18084   18099   18098   18083   0.      0.
CQUAD4   18073   4       18085   18100   18099   18084   0.      0.
CQUAD4   18074   4       18086   18101   18100   18085   0.      0.
CQUAD4   18075   4       18087   18102   18101   18086   0.      0.
CQUAD4   18076   4       18088   18103   18102   18087   0.      0.
CQUAD4   18077   4       18107   18104   18103   18088   0.      0.
CQUAD4   18078   4       18106   18082   18083   18098   0.      0.
CQUAD4   18079   4       18106   18094   18081   18082   0.      0.
CQUAD4   18080   4       18089   18052   18053   18104   0.      0.
CQUAD4   18081   4       18054   18103   18104   18053   0.      0.
CQUAD4   18082   4       18055   18102   18103   18054   0.      0.
CQUAD4   18083   4       18056   18101   18102   18055   0.      0.
CQUAD4   18084   4       18095   18105   18056   18057   0.      0.
CQUAD4   18085   4       18105   18100   18101   18056   0.      0.
CQUAD4   18086   4       18097   18105   18095   18096   0.      0.
CQUAD4   18087   4       18097   18099   18100   18105   0.      0.
CQUAD4   18088   4       18093   18094   18106   18098   0.      0.
CQUAD4   18089   4       18089   18104   18107   18079   0.      0.
CQUAD4   18090   4       18003   18108   18109   18006   0.      0.
CQUAD4   18091   4       18006   18109   18110   18007   0.      0.
CQUAD4   18092   4       18007   18110   18111   18008   0.      0.
CQUAD4   18093   4       18008   18111   18112   18009   0.      0.
CQUAD4   18094   4       18009   18112   18113   18010   0.      0.
CQUAD4   18095   4       18010   18113   18114   18011   0.      0.
CQUAD4   18096   4       18011   18114   18115   18012   0.      0.
CQUAD4   18097   4       18012   18115   18116   18013   0.      0.
CQUAD4   18098   4       18013   18116   18117   18014   0.      0.
CQUAD4   18099   4       18014   18117   18118   18015   0.      0.
CQUAD4   18100   4       18015   18118   18119   18005   0.      0.
CQUAD4   18101   4       18108   18120   18121   18109   0.      0.
CQUAD4   18102   4       18109   18121   18122   18110   0.      0.
CQUAD4   18103   4       18110   18122   18123   18111   0.      0.
CQUAD4   18104   4       18111   18123   18124   18112   0.      0.
CQUAD4   18105   4       18112   18124   18125   18113   0.      0.
CQUAD4   18106   4       18113   18125   18126   18114   0.      0.
CQUAD4   18107   4       18114   18126   18127   18115   0.      0.
CQUAD4   18108   4       18115   18127   18128   18116   0.      0.
CQUAD4   18109   4       18116   18128   18129   18117   0.      0.
CQUAD4   18110   4       18117   18129   18130   18118   0.      0.
CQUAD4   18111   4       18118   18130   18131   18119   0.      0.
CTRIA3   18112   4       18089   18052   18051   0.      0.
CTRIA3   18113   4       18051   18089   18050   0.      0.
$ Elements and Element Properties for region : pshell.5
PSHELL   5       1      1.6      1               1
$ Pset: "pshell.5" will be imported as: "pshell.5"
CQUAD4   20000   5       20000   20001   20009   20008   0.      0.
CQUAD4   20001   5       20001   20002   20010   20009   0.      0.
CQUAD4   20002   5       20002   20003   20011   20010   0.      0.
CQUAD4   20003   5       20003   20004   20012   20011   0.      0.
CQUAD4   20004   5       20004   20079   20013   20012   0.      0.
CQUAD4   20005   5       20079   20082   20014   20013   0.      0.
CQUAD4   20006   5       20082   20085   20015   20014   0.      0.
CQUAD4   20007   5       20085   20088   20016   20015   0.      0.
CQUAD4   20008   5       20015   20017   20021   20014   0.      0.
CQUAD4   20009   5       20017   20018   20022   20021   0.      0.
CQUAD4   20010   5       20018   20019   20023   20022   0.      0.
CQUAD4   20011   5       20019   20020   20024   20023   0.      0.
CQUAD4   20012   5       20014   20021   20025   20013   0.      0.
CQUAD4   20013   5       20021   20022   20026   20025   0.      0.
CQUAD4   20014   5       20022   20023   20027   20026   0.      0.
CQUAD4   20015   5       20023   20024   20028   20027   0.      0.
CQUAD4   20016   5       20013   20025   20029   20012   0.      0.
CQUAD4   20017   5       20025   20026   20030   20029   0.      0.
CQUAD4   20018   5       20026   20027   20031   20030   0.      0.
CQUAD4   20019   5       20027   20028   20032   20031   0.      0.
CQUAD4   20020   5       20012   20029   20033   20011   0.      0.
CQUAD4   20021   5       20029   20030   20034   20033   0.      0.
CQUAD4   20022   5       20030   20031   20035   20034   0.      0.
CQUAD4   20023   5       20031   20032   20036   20035   0.      0.
CQUAD4   20024   5       20011   20033   20037   20010   0.      0.
CQUAD4   20025   5       20033   20034   20038   20037   0.      0.
CQUAD4   20026   5       20034   20035   20039   20038   0.      0.
CQUAD4   20027   5       20035   20036   20040   20039   0.      0.
CQUAD4   20028   5       20010   20037   20041   20009   0.      0.
CQUAD4   20029   5       20037   20038   20042   20041   0.      0.
CQUAD4   20030   5       20038   20039   20043   20042   0.      0.
CQUAD4   20031   5       20039   20040   20044   20043   0.      0.
CQUAD4   20032   5       20009   20041   20045   20008   0.      0.
CQUAD4   20033   5       20041   20042   20046   20045   0.      0.
CQUAD4   20034   5       20042   20043   20047   20046   0.      0.
CQUAD4   20035   5       20043   20044   20048   20047   0.      0.
CQUAD4   20036   5       20015   20017   20049   20016   0.      0.
CQUAD4   20037   5       20017   20018   20050   20049   0.      0.
CQUAD4   20038   5       20018   20019   20051   20050   0.      0.
CTRIA3   20039   5       20019   20051   20020   0.      0.
CQUAD4   20040   5       20007   20000   20008   20052   0.      0.
CQUAD4   20041   5       20052   20008   20045   20053   0.      0.
CQUAD4   20042   5       20053   20045   20046   20054   0.      0.
CQUAD4   20043   5       20054   20046   20047   20055   0.      0.
CQUAD4   20044   5       20055   20047   20048   20056   0.      0.
CTRIA3   20045   5       20005   20093   20058   0.      0.
CQUAD4   20046   5       20093   20058   20059   20096   0.      0.
CQUAD4   20047   5       20096   20059   20060   20099   0.      0.
CQUAD4   20048   5       20099   20060   20061   20006   0.      0.
CQUAD4   20049   5       20006   20061   20052   20007   0.      0.
CQUAD4   20050   5       20061   20062   20053   20052   0.      0.
CQUAD4   20051   5       20061   20062   20063   20060   0.      0.
CQUAD4   20052   5       20060   20059   20064   20063   0.      0.
CQUAD4   20053   5       20063   20065   20066   20062   0.      0.
CQUAD4   20054   5       20062   20066   20054   20053   0.      0.
CQUAD4   20055   5       20066   20057   20055   20054   0.      0.
CTRIA3   20056   5       20058   20059   20064   0.      0.
CTRIA3   20057   5       20064   20063   20065   0.      0.
CTRIA3   20058   5       20065   20066   20057   0.      0.
CTRIA3   20059   5       20057   20055   20056   0.      0.
CQUAD4   20060   5       20067   20068   20070   20069   0.      0.
CQUAD4   20061   5       20068   20000   20001   20070   0.      0.
CQUAD4   20062   5       20069   20070   20072   20071   0.      0.
CQUAD4   20063   5       20070   20001   20002   20072   0.      0.
CQUAD4   20064   5       20071   20072   20074   20073   0.      0.
CQUAD4   20065   5       20072   20002   20003   20074   0.      0.
CQUAD4   20066   5       20073   20074   20076   20075   0.      0.
CQUAD4   20067   5       20074   20003   20004   20076   0.      0.
CQUAD4   20068   5       20075   20076   20078   20077   0.      0.
CQUAD4   20069   5       20076   20004   20079   20078   0.      0.
CQUAD4   20070   5       20077   20078   20081   20080   0.      0.
CQUAD4   20071   5       20078   20079   20082   20081   0.      0.
CQUAD4   20072   5       20080   20081   20084   20083   0.      0.
CQUAD4   20073   5       20081   20082   20085   20084   0.      0.
CQUAD4   20074   5       20083   20084   20087   20086   0.      0.
CQUAD4   20075   5       20084   20085   20088   20087   0.      0.
CQUAD4   20076   5       20089   20090   20092   20091   0.      0.
CQUAD4   20077   5       20090   20005   20093   20092   0.      0.
CQUAD4   20078   5       20091   20092   20095   20094   0.      0.
CQUAD4   20079   5       20092   20093   20096   20095   0.      0.
CQUAD4   20080   5       20094   20095   20098   20097   0.      0.
CQUAD4   20081   5       20095   20096   20099   20098   0.      0.
CQUAD4   20082   5       20097   20098   20101   20100   0.      0.
CQUAD4   20083   5       20098   20099   20006   20101   0.      0.
CQUAD4   20084   5       20100   20101   20103   20102   0.      0.
CQUAD4   20085   5       20101   20006   20007   20103   0.      0.
CQUAD4   20086   5       20102   20103   20068   20067   0.      0.
CQUAD4   20087   5       20103   20007   20000   20068   0.      0.
$ Elements and Element Properties for region : pshell.6
PSHELL   6       1      1.2      1               1
$ Pset: "pshell.6" will be imported as: "pshell.6"
CTRIA3   25000   6       25093   25016   25091   0.      0.
CQUAD4   25001   6       25016   25093   25095   25094   0.      0.
CQUAD4   25002   6       25094   25095   25097   25096   0.      0.
CQUAD4   25003   6       25096   25097   25099   25098   0.      0.
CQUAD4   25004   6       25098   25099   25101   25100   0.      0.
CQUAD4   25005   6       25100   25101   25103   25102   0.      0.
CQUAD4   25006   6       25102   25103   25105   25104   0.      0.
CQUAD4   25007   6       25104   25105   25107   25106   0.      0.
CQUAD4   25008   6       25106   25107   25109   25108   0.      0.
CQUAD4   25009   6       25108   25109   25111   25110   0.      0.
CQUAD4   25010   6       25110   25111   25113   25112   0.      0.
CQUAD4   25011   6       25112   25113   25115   25114   0.      0.
CQUAD4   25012   6       25114   25115   25116   25017   0.      0.
CQUAD4   25013   6       25017   25116   25118   25117   0.      0.
CQUAD4   25014   6       25117   25118   25120   25119   0.      0.
CQUAD4   25015   6       25119   25120   25122   25121   0.      0.
CQUAD4   25016   6       25121   25122   25124   25123   0.      0.
CQUAD4   25017   6       25123   25124   25126   25125   0.      0.
CQUAD4   25018   6       25125   25126   25128   25127   0.      0.
CQUAD4   25019   6       25127   25128   25130   25129   0.      0.
CQUAD4   25020   6       25129   25130   25132   25131   0.      0.
CQUAD4   25021   6       25131   25132   25134   25133   0.      0.
CQUAD4   25022   6       25133   25134   25135   25018   0.      0.
CQUAD4   25023   6       25018   25135   25137   25136   0.      0.
CQUAD4   25024   6       25136   25137   25139   25138   0.      0.
CQUAD4   25025   6       25138   25139   25141   25140   0.      0.
CQUAD4   25026   6       25140   25141   25143   25142   0.      0.
CQUAD4   25027   6       25142   25143   25145   25144   0.      0.
CQUAD4   25028   6       25144   25145   25147   25146   0.      0.
CQUAD4   25029   6       25146   25147   25149   25148   0.      0.
CQUAD4   25030   6       25148   25149   25151   25150   0.      0.
CQUAD4   25031   6       25150   25151   25153   25152   0.      0.
CQUAD4   25032   6       25152   25153   25155   25154   0.      0.
CQUAD4   25033   6       25154   25155   25157   25156   0.      0.
CQUAD4   25034   6       25156   25157   25159   25158   0.      0.
CQUAD4   25035   6       25158   25159   25161   25160   0.      0.
CQUAD4   25036   6       25160   25161   25163   25162   0.      0.
CQUAD4   25037   6       25162   25163   25165   25164   0.      0.
CQUAD4   25038   6       25164   25165   25167   25166   0.      0.
CQUAD4   25039   6       25166   25167   25168   25019   0.      0.
CQUAD4   25040   6       25019   25168   25170   25169   0.      0.
CQUAD4   25041   6       25169   25170   25172   25171   0.      0.
CQUAD4   25042   6       25171   25172   25174   25173   0.      0.
CQUAD4   25043   6       25173   25174   25176   25175   0.      0.
CQUAD4   25044   6       25175   25176   25178   25177   0.      0.
CQUAD4   25045   6       25177   25178   25180   25179   0.      0.
CQUAD4   25046   6       25179   25180   25182   25181   0.      0.
CQUAD4   25047   6       25181   25182   25184   25183   0.      0.
CQUAD4   25048   6       25183   25184   25186   25185   0.      0.
CQUAD4   25049   6       25185   25186   25188   25187   0.      0.
CQUAD4   25050   6       25187   25188   25190   25189   0.      0.
CQUAD4   25051   6       25189   25190   25192   25191   0.      0.
CQUAD4   25052   6       25191   25192   25194   25193   0.      0.
CQUAD4   25053   6       25193   25194   25195   25020   0.      0.
CQUAD4   25054   6       25020   25195   25197   25196   0.      0.
CQUAD4   25055   6       25196   25197   25199   25198   0.      0.
CQUAD4   25056   6       25198   25199   25201   25200   0.      0.
CQUAD4   25057   6       25200   25201   25203   25202   0.      0.
CQUAD4   25058   6       25202   25203   25205   25204   0.      0.
CQUAD4   25059   6       25204   25205   25207   25206   0.      0.
CQUAD4   25060   6       25206   25207   25209   25208   0.      0.
CQUAD4   25061   6       25208   25209   25211   25210   0.      0.
CQUAD4   25062   6       25210   25211   25213   25212   0.      0.
CQUAD4   25063   6       25212   25213   25215   25214   0.      0.
CQUAD4   25064   6       25214   25215   25216   25021   0.      0.
CQUAD4   25066   6       25024   25091   25016   25025   0.      0.
CQUAD4   25067   6       25026   25094   25096   25027   0.      0.
CQUAD4   25068   6       25028   25098   25100   25029   0.      0.
CQUAD4   25069   6       25031   25104   25106   25032   0.      0.
CQUAD4   25070   6       25033   25108   25110   25034   0.      0.
CQUAD4   25071   6       25035   25112   25114   25036   0.      0.
CQUAD4   25072   6       25038   25117   25119   25039   0.      0.
CQUAD4   25073   6       25040   25121   25123   25041   0.      0.
CQUAD4   25074   6       25042   25125   25127   25043   0.      0.
CQUAD4   25075   6       25045   25131   25133   25046   0.      0.
CQUAD4   25076   6       25047   25018   25136   25048   0.      0.
CQUAD4   25077   6       25049   25138   25140   25050   0.      0.
CQUAD4   25078   6       25052   25144   25146   25053   0.      0.
CQUAD4   25079   6       25054   25148   25150   25055   0.      0.
CQUAD4   25080   6       25057   25154   25156   25058   0.      0.
CQUAD4   25081   6       25059   25158   25160   25060   0.      0.
CQUAD4   25082   6       25061   25162   25164   25062   0.      0.
CQUAD4   25083   6       25064   25019   25169   25065   0.      0.
CQUAD4   25084   6       25066   25171   25173   25067   0.      0.
CQUAD4   25085   6       25068   25175   25177   25069   0.      0.
CQUAD4   25086   6       25071   25181   25183   25072   0.      0.
CQUAD4   25087   6       25073   25185   25187   25074   0.      0.
CQUAD4   25088   6       25075   25189   25191   25076   0.      0.
CQUAD4   25089   6       25078   25020   25196   25079   0.      0.
CQUAD4   25090   6       25080   25198   25200   25081   0.      0.
CQUAD4   25091   6       25082   25202   25204   25083   0.      0.
CQUAD4   25092   6       25085   25208   25210   25086   0.      0.
CQUAD4   25093   6       25087   25212   25214   25088   0.      0.
CQUAD4   25094   6       25089   25021   25217   25090   0.      0.
CQUAD4   25095   6       25025   25016   25094   25026   0.      0.
CQUAD4   25096   6       25027   25096   25098   25028   0.      0.
CQUAD4   25097   6       25029   25100   25102   25030   0.      0.
CQUAD4   25098   6       25030   25102   25104   25031   0.      0.
CQUAD4   25099   6       25032   25106   25108   25033   0.      0.
CQUAD4   25100   6       25034   25110   25112   25035   0.      0.
CQUAD4   25101   6       25036   25114   25017   25037   0.      0.
CQUAD4   25102   6       25037   25017   25117   25038   0.      0.
CQUAD4   25103   6       25039   25119   25121   25040   0.      0.
CQUAD4   25104   6       25041   25123   25125   25042   0.      0.
CQUAD4   25105   6       25043   25127   25129   25044   0.      0.
CQUAD4   25106   6       25044   25129   25131   25045   0.      0.
CQUAD4   25107   6       25046   25133   25018   25047   0.      0.
CQUAD4   25108   6       25048   25136   25138   25049   0.      0.
CQUAD4   25109   6       25050   25140   25142   25051   0.      0.
CQUAD4   25110   6       25051   25142   25144   25052   0.      0.
CQUAD4   25111   6       25053   25146   25148   25054   0.      0.
CQUAD4   25112   6       25055   25150   25152   25056   0.      0.
CQUAD4   25113   6       25056   25152   25154   25057   0.      0.
CQUAD4   25114   6       25058   25156   25158   25059   0.      0.
CQUAD4   25115   6       25060   25160   25162   25061   0.      0.
CQUAD4   25116   6       25062   25164   25166   25063   0.      0.
CQUAD4   25117   6       25063   25166   25019   25064   0.      0.
CQUAD4   25118   6       25065   25169   25171   25066   0.      0.
CQUAD4   25119   6       25067   25173   25175   25068   0.      0.
CQUAD4   25120   6       25069   25177   25179   25070   0.      0.
CQUAD4   25121   6       25070   25179   25181   25071   0.      0.
CQUAD4   25122   6       25072   25183   25185   25073   0.      0.
CQUAD4   25123   6       25074   25187   25189   25075   0.      0.
CQUAD4   25124   6       25076   25191   25193   25077   0.      0.
CQUAD4   25125   6       25077   25193   25020   25078   0.      0.
CQUAD4   25126   6       25079   25196   25198   25080   0.      0.
CQUAD4   25127   6       25081   25200   25202   25082   0.      0.
CQUAD4   25128   6       25083   25204   25206   25084   0.      0.
CQUAD4   25129   6       25084   25206   25208   25085   0.      0.
CQUAD4   25130   6       25086   25210   25212   25087   0.      0.
CQUAD4   25131   6       25088   25214   25021   25089   0.      0.
CQUAD4   25132   6       25353   25219   25220   25354   0.      0.
CQUAD4   25133   6       25354   25220   25221   25355   0.      0.
CQUAD4   25134   6       25355   25221   25222   25356   0.      0.
CQUAD4   25135   6       25356   25222   25223   25357   0.      0.
CQUAD4   25136   6       25357   25223   25224   25358   0.      0.
CQUAD4   25137   6       25358   25224   25225   25359   0.      0.
CQUAD4   25138   6       25359   25225   25226   25360   0.      0.
CQUAD4   25139   6       25360   25226   25227   25361   0.      0.
CQUAD4   25140   6       25361   25227   25228   25362   0.      0.
CQUAD4   25141   6       25362   25228   25229   25363   0.      0.
CQUAD4   25142   6       25363   25229   25230   25364   0.      0.
CQUAD4   25143   6       25364   25230   25231   25365   0.      0.
CQUAD4   25144   6       25365   25231   25232   25366   0.      0.
CQUAD4   25145   6       25366   25232   25233   25367   0.      0.
CQUAD4   25146   6       25367   25233   25234   25368   0.      0.
CQUAD4   25147   6       25368   25234   25235   25369   0.      0.
CQUAD4   25148   6       25369   25235   25236   25370   0.      0.
CQUAD4   25149   6       25370   25236   25237   25371   0.      0.
CQUAD4   25150   6       25371   25237   25238   25372   0.      0.
CQUAD4   25151   6       25372   25238   25239   25373   0.      0.
CQUAD4   25152   6       25373   25239   25240   25374   0.      0.
CQUAD4   25153   6       25374   25240   25241   25375   0.      0.
CQUAD4   25154   6       25375   25241   25242   25376   0.      0.
CQUAD4   25155   6       25376   25242   25243   25377   0.      0.
CQUAD4   25156   6       25377   25243   25244   25378   0.      0.
CQUAD4   25157   6       25378   25244   25245   25379   0.      0.
CQUAD4   25158   6       25379   25245   25246   25380   0.      0.
CQUAD4   25159   6       25380   25246   25247   25381   0.      0.
CQUAD4   25160   6       25381   25247   25248   25382   0.      0.
CQUAD4   25161   6       25382   25248   25249   25383   0.      0.
CQUAD4   25162   6       25383   25249   25250   25384   0.      0.
CQUAD4   25163   6       25384   25250   25251   25385   0.      0.
CQUAD4   25164   6       25385   25251   25252   25386   0.      0.
CQUAD4   25165   6       25386   25252   25253   25387   0.      0.
CQUAD4   25166   6       25387   25253   25254   25388   0.      0.
CQUAD4   25167   6       25388   25254   25255   25389   0.      0.
CQUAD4   25168   6       25389   25255   25256   25390   0.      0.
CQUAD4   25169   6       25390   25256   25257   25391   0.      0.
CQUAD4   25170   6       25391   25257   25258   25392   0.      0.
CQUAD4   25171   6       25392   25258   25259   25393   0.      0.
CQUAD4   25172   6       25393   25259   25260   25394   0.      0.
CQUAD4   25173   6       25394   25260   25261   25395   0.      0.
CQUAD4   25174   6       25395   25261   25262   25396   0.      0.
CQUAD4   25175   6       25396   25262   25263   25397   0.      0.
CQUAD4   25176   6       25397   25263   25264   25398   0.      0.
CQUAD4   25177   6       25398   25264   25265   25399   0.      0.
CQUAD4   25178   6       25399   25265   25266   25400   0.      0.
CQUAD4   25179   6       25400   25266   25267   25401   0.      0.
CQUAD4   25180   6       25401   25267   25268   25402   0.      0.
CQUAD4   25181   6       25402   25268   25269   25403   0.      0.
CQUAD4   25182   6       25403   25269   25270   25404   0.      0.
CQUAD4   25183   6       25404   25270   25271   25405   0.      0.
CQUAD4   25184   6       25405   25271   25272   25406   0.      0.
CQUAD4   25185   6       25406   25272   25273   25407   0.      0.
CQUAD4   25186   6       25407   25273   25274   25408   0.      0.
CQUAD4   25187   6       25408   25274   25275   25409   0.      0.
CQUAD4   25188   6       25409   25275   25276   25410   0.      0.
CQUAD4   25189   6       25410   25276   25277   25411   0.      0.
CQUAD4   25190   6       25411   25277   25278   25412   0.      0.
CQUAD4   25191   6       25412   25278   25279   25413   0.      0.
CQUAD4   25192   6       25413   25279   25280   25414   0.      0.
CQUAD4   25193   6       25414   25280   25281   25415   0.      0.
CQUAD4   25194   6       25415   25281   25282   25416   0.      0.
CQUAD4   25195   6       25416   25282   25283   25417   0.      0.
CQUAD4   25196   6       25417   25283   25284   25418   0.      0.
CQUAD4   25197   6       25418   25284   25285   25419   0.      0.
CQUAD4   25198   6       25286   25353   25354   25287   0.      0.
CQUAD4   25199   6       25287   25354   25355   25288   0.      0.
CQUAD4   25200   6       25288   25355   25356   25289   0.      0.
CQUAD4   25201   6       25289   25356   25357   25290   0.      0.
CQUAD4   25202   6       25290   25357   25358   25291   0.      0.
CQUAD4   25203   6       25291   25358   25359   25292   0.      0.
CQUAD4   25204   6       25292   25359   25360   25293   0.      0.
CQUAD4   25205   6       25293   25360   25361   25294   0.      0.
CQUAD4   25206   6       25294   25361   25362   25295   0.      0.
CQUAD4   25207   6       25295   25362   25363   25296   0.      0.
CQUAD4   25208   6       25296   25363   25364   25297   0.      0.
CQUAD4   25209   6       25297   25364   25365   25298   0.      0.
CQUAD4   25210   6       25298   25365   25366   25299   0.      0.
CQUAD4   25211   6       25299   25366   25367   25300   0.      0.
CQUAD4   25212   6       25300   25367   25368   25301   0.      0.
CQUAD4   25213   6       25301   25368   25369   25302   0.      0.
CQUAD4   25214   6       25302   25369   25370   25303   0.      0.
CQUAD4   25215   6       25303   25370   25371   25304   0.      0.
CQUAD4   25216   6       25304   25371   25372   25305   0.      0.
CQUAD4   25217   6       25305   25372   25373   25306   0.      0.
CQUAD4   25218   6       25306   25373   25374   25307   0.      0.
CQUAD4   25219   6       25307   25374   25375   25308   0.      0.
CQUAD4   25220   6       25308   25375   25376   25309   0.      0.
CQUAD4   25221   6       25309   25376   25377   25310   0.      0.
CQUAD4   25222   6       25310   25377   25378   25311   0.      0.
CQUAD4   25223   6       25311   25378   25379   25312   0.      0.
CQUAD4   25224   6       25312   25379   25380   25313   0.      0.
CQUAD4   25225   6       25313   25380   25381   25314   0.      0.
CQUAD4   25226   6       25314   25381   25382   25315   0.      0.
CQUAD4   25227   6       25315   25382   25383   25316   0.      0.
CQUAD4   25228   6       25316   25383   25384   25317   0.      0.
CQUAD4   25229   6       25317   25384   25385   25318   0.      0.
CQUAD4   25230   6       25318   25385   25386   25319   0.      0.
CQUAD4   25231   6       25319   25386   25387   25320   0.      0.
CQUAD4   25232   6       25320   25387   25388   25321   0.      0.
CQUAD4   25233   6       25321   25388   25389   25322   0.      0.
CQUAD4   25234   6       25322   25389   25390   25323   0.      0.
CQUAD4   25235   6       25323   25390   25391   25324   0.      0.
CQUAD4   25236   6       25324   25391   25392   25325   0.      0.
CQUAD4   25237   6       25325   25392   25393   25326   0.      0.
CQUAD4   25238   6       25326   25393   25394   25327   0.      0.
CQUAD4   25239   6       25327   25394   25395   25328   0.      0.
CQUAD4   25240   6       25328   25395   25396   25329   0.      0.
CQUAD4   25241   6       25329   25396   25397   25330   0.      0.
CQUAD4   25242   6       25330   25397   25398   25331   0.      0.
CQUAD4   25243   6       25331   25398   25399   25332   0.      0.
CQUAD4   25244   6       25332   25399   25400   25333   0.      0.
CQUAD4   25245   6       25333   25400   25401   25334   0.      0.
CQUAD4   25246   6       25334   25401   25402   25335   0.      0.
CQUAD4   25247   6       25335   25402   25403   25336   0.      0.
CQUAD4   25248   6       25336   25403   25404   25337   0.      0.
CQUAD4   25249   6       25337   25404   25405   25338   0.      0.
CQUAD4   25250   6       25338   25405   25406   25339   0.      0.
CQUAD4   25251   6       25339   25406   25407   25340   0.      0.
CQUAD4   25252   6       25340   25407   25408   25341   0.      0.
CQUAD4   25253   6       25341   25408   25409   25342   0.      0.
CQUAD4   25254   6       25342   25409   25410   25343   0.      0.
CQUAD4   25255   6       25343   25410   25411   27037   0.      0.
CQUAD4   25256   6       27037   25411   25412   25345   0.      0.
CQUAD4   25257   6       25345   25412   25413   25346   0.      0.
CQUAD4   25258   6       25346   25413   25414   25347   0.      0.
CQUAD4   25259   6       25347   25414   25415   25348   0.      0.
CQUAD4   25260   6       25348   25415   25416   25349   0.      0.
CQUAD4   25261   6       25349   25416   25417   25350   0.      0.
CQUAD4   25262   6       25350   25417   25418   25351   0.      0.
CQUAD4   25263   6       25351   25418   25419   25352   0.      0.
CQUAD4   25264   6       25489   25286   25287   25492   0.      0.
CQUAD4   25265   6       25492   25287   25288   25495   0.      0.
CQUAD4   25266   6       25495   25288   25289   25498   0.      0.
CQUAD4   25267   6       25498   25289   25290   25501   0.      0.
CQUAD4   25268   6       25501   25290   25291   25504   0.      0.
CQUAD4   25269   6       25504   25291   25292   25507   0.      0.
CQUAD4   25270   6       25507   25292   25293   25510   0.      0.
CQUAD4   25271   6       25510   25293   25294   25513   0.      0.
CQUAD4   25272   6       25513   25294   25295   25516   0.      0.
CQUAD4   25273   6       25516   25295   25296   25519   0.      0.
CQUAD4   25274   6       25519   25296   25297   25522   0.      0.
CQUAD4   25275   6       25522   25297   25298   25525   0.      0.
CQUAD4   25276   6       25525   25298   25299   25528   0.      0.
CQUAD4   25277   6       25528   25299   25300   25531   0.      0.
CQUAD4   25278   6       25531   25300   25301   25534   0.      0.
CQUAD4   25279   6       25534   25301   25302   25537   0.      0.
CQUAD4   25280   6       25537   25302   25303   25540   0.      0.
CQUAD4   25281   6       25540   25303   25304   25543   0.      0.
CQUAD4   25282   6       25543   25304   25305   25546   0.      0.
CQUAD4   25283   6       25546   25305   25306   25549   0.      0.
CQUAD4   25284   6       25549   25306   25307   25552   0.      0.
CQUAD4   25285   6       25552   25307   25308   25555   0.      0.
CQUAD4   25286   6       25555   25308   25309   25558   0.      0.
CQUAD4   25287   6       25558   25309   25310   25561   0.      0.
CQUAD4   25288   6       25561   25310   25311   25564   0.      0.
CQUAD4   25289   6       25564   25311   25312   25567   0.      0.
CQUAD4   25290   6       25567   25312   25313   25570   0.      0.
CQUAD4   25291   6       25570   25313   25314   25573   0.      0.
CQUAD4   25292   6       25573   25314   25315   25576   0.      0.
CQUAD4   25293   6       25576   25315   25316   25579   0.      0.
CQUAD4   25294   6       25579   25316   25317   25582   0.      0.
CQUAD4   25295   6       25582   25317   25318   25585   0.      0.
CQUAD4   25296   6       25585   25318   25319   25588   0.      0.
CQUAD4   25297   6       25588   25319   25320   25591   0.      0.
CQUAD4   25298   6       25591   25320   25321   25594   0.      0.
CQUAD4   25299   6       25594   25321   25322   25597   0.      0.
CQUAD4   25300   6       25597   25322   25323   25600   0.      0.
CQUAD4   25301   6       25600   25323   25324   25603   0.      0.
CQUAD4   25302   6       25603   25324   25325   25606   0.      0.
CQUAD4   25303   6       25606   25325   25326   25609   0.      0.
CQUAD4   25304   6       25609   25326   25327   25612   0.      0.
CQUAD4   25305   6       25612   25327   25328   25615   0.      0.
CQUAD4   25306   6       25615   25328   25329   25618   0.      0.
CQUAD4   25307   6       25618   25329   25330   25621   0.      0.
CQUAD4   25308   6       25621   25330   25331   25624   0.      0.
CQUAD4   25309   6       25624   25331   25332   25627   0.      0.
CQUAD4   25310   6       25627   25332   25333   25630   0.      0.
CQUAD4   25311   6       25630   25333   25334   25633   0.      0.
CQUAD4   25312   6       25633   25334   25335   25636   0.      0.
CQUAD4   25313   6       25636   25335   25336   25639   0.      0.
CQUAD4   25314   6       25639   25336   25337   25642   0.      0.
CQUAD4   25315   6       25642   25337   25338   25645   0.      0.
CQUAD4   25316   6       25645   25338   25339   25648   0.      0.
CQUAD4   25317   6       25648   25339   25340   25651   0.      0.
CQUAD4   25318   6       25651   25340   25341   25654   0.      0.
CQUAD4   25319   6       25654   25341   25342   25657   0.      0.
CQUAD4   25320   6       25657   25342   25343   25660   0.      0.
CQUAD4   25321   6       25660   25343   27037   25663   0.      0.
CQUAD4   25322   6       25663   27037   25345   25666   0.      0.
CQUAD4   25323   6       25666   25345   25346   25669   0.      0.
CQUAD4   25324   6       25669   25346   25347   25672   0.      0.
CQUAD4   25325   6       25672   25347   25348   25675   0.      0.
CQUAD4   25326   6       25675   25348   25349   25678   0.      0.
CQUAD4   25327   6       25678   25349   25350   25681   0.      0.
CQUAD4   25328   6       25681   25350   25351   25684   0.      0.
CQUAD4   25329   6       25684   25351   25352   25687   0.      0.
CQUAD4   25330   6       25491   25492   25495   25494   0.      0.
CQUAD4   25331   6       25497   25498   25501   25500   0.      0.
CQUAD4   25332   6       25503   25504   25507   25506   0.      0.
CQUAD4   25333   6       25506   25507   25510   25509   0.      0.
CQUAD4   25334   6       25512   25513   25516   25515   0.      0.
CQUAD4   25335   6       25518   25519   25522   25521   0.      0.
CQUAD4   25336   6       25524   25525   25528   25527   0.      0.
CQUAD4   25337   6       25527   25528   25531   25530   0.      0.
CQUAD4   25338   6       25533   25534   25537   25536   0.      0.
CQUAD4   25339   6       25539   25540   25543   25542   0.      0.
CQUAD4   25340   6       25545   25546   25549   25548   0.      0.
CQUAD4   25341   6       25548   25549   25552   25551   0.      0.
CQUAD4   25342   6       25554   25555   25558   25557   0.      0.
CQUAD4   25343   6       25560   25561   25564   25563   0.      0.
CQUAD4   25344   6       25566   25567   25570   25569   0.      0.
CQUAD4   25345   6       25569   25570   25573   25572   0.      0.
CQUAD4   25346   6       25575   25576   25579   25578   0.      0.
CQUAD4   25347   6       25581   25582   25585   25584   0.      0.
CQUAD4   25348   6       25584   25585   25588   25587   0.      0.
CQUAD4   25349   6       25590   25591   25594   25593   0.      0.
CQUAD4   25350   6       25596   25597   25600   25599   0.      0.
CQUAD4   25351   6       25602   25603   25606   25605   0.      0.
CQUAD4   25352   6       25605   25606   25609   25608   0.      0.
CQUAD4   25353   6       25611   25612   25615   25614   0.      0.
CQUAD4   25354   6       25617   25618   25621   25620   0.      0.
CQUAD4   25355   6       25623   25624   25627   25626   0.      0.
CQUAD4   25356   6       25626   25627   25630   25629   0.      0.
CQUAD4   25357   6       25632   25633   25636   25635   0.      0.
CQUAD4   25358   6       25638   25639   25642   25641   0.      0.
CQUAD4   25359   6       25644   25645   25648   25647   0.      0.
CQUAD4   25360   6       25647   25648   25651   25650   0.      0.
CQUAD4   25361   6       25653   25654   25657   25656   0.      0.
CQUAD4   25362   6       25659   25660   25663   25662   0.      0.
CQUAD4   25363   6       25665   25666   25669   25668   0.      0.
CQUAD4   25364   6       25668   25669   25672   25671   0.      0.
CQUAD4   25365   6       25674   25675   25678   25677   0.      0.
CQUAD4   25366   6       25680   25681   25684   25683   0.      0.
CQUAD4   25367   6       25488   25489   25492   25491   0.      0.
CQUAD4   25368   6       25494   25495   25498   25497   0.      0.
CQUAD4   25369   6       25500   25501   25504   25503   0.      0.
CQUAD4   25370   6       25509   25510   25513   25512   0.      0.
CQUAD4   25371   6       25515   25516   25519   25518   0.      0.
CQUAD4   25372   6       25521   25522   25525   25524   0.      0.
CQUAD4   25373   6       25530   25531   25534   25533   0.      0.
CQUAD4   25374   6       25536   25537   25540   25539   0.      0.
CQUAD4   25375   6       25542   25543   25546   25545   0.      0.
CQUAD4   25376   6       25551   25552   25555   25554   0.      0.
CQUAD4   25377   6       25557   25558   25561   25560   0.      0.
CQUAD4   25378   6       25563   25564   25567   25566   0.      0.
CQUAD4   25379   6       25572   25573   25576   25575   0.      0.
CQUAD4   25380   6       25578   25579   25582   25581   0.      0.
CQUAD4   25381   6       25587   25588   25591   25590   0.      0.
CQUAD4   25382   6       25593   25594   25597   25596   0.      0.
CQUAD4   25383   6       25599   25600   25603   25602   0.      0.
CQUAD4   25384   6       25608   25609   25612   25611   0.      0.
CQUAD4   25385   6       25614   25615   25618   25617   0.      0.
CQUAD4   25386   6       25620   25621   25624   25623   0.      0.
CQUAD4   25387   6       25629   25630   25633   25632   0.      0.
CQUAD4   25388   6       25635   25636   25639   25638   0.      0.
CQUAD4   25389   6       25641   25642   25645   25644   0.      0.
CQUAD4   25390   6       25650   25651   25654   25653   0.      0.
CQUAD4   25391   6       25656   25657   25660   25659   0.      0.
CQUAD4   25392   6       25662   25663   25666   25665   0.      0.
CQUAD4   25393   6       25671   25672   25675   25674   0.      0.
CQUAD4   25394   6       25677   25678   25681   25680   0.      0.
CQUAD4   25395   6       25683   25684   25687   25686   0.      0.
CQUAD4   25396   6       25490   25491   25494   25493   0.      0.
CQUAD4   25397   6       25496   25497   25500   25499   0.      0.
CQUAD4   25398   6       25502   25503   25506   25505   0.      0.
CQUAD4   25399   6       25505   25506   25509   25508   0.      0.
CQUAD4   25400   6       25511   25512   25515   25514   0.      0.
CQUAD4   25401   6       25517   25518   25521   25520   0.      0.
CQUAD4   25402   6       25523   25524   25527   25526   0.      0.
CQUAD4   25403   6       25526   25527   25530   25529   0.      0.
CQUAD4   25404   6       25532   25533   25536   25535   0.      0.
CQUAD4   25405   6       25538   25539   25542   25541   0.      0.
CQUAD4   25406   6       25544   25545   25548   25547   0.      0.
CQUAD4   25407   6       25547   25548   25551   25550   0.      0.
CQUAD4   25408   6       25553   25554   25557   25556   0.      0.
CQUAD4   25409   6       25559   25560   25563   25562   0.      0.
CQUAD4   25410   6       25565   25566   25569   25568   0.      0.
CQUAD4   25411   6       25568   25569   25572   25571   0.      0.
CQUAD4   25412   6       25574   25575   25578   25577   0.      0.
CQUAD4   25413   6       25580   25581   25584   25583   0.      0.
CQUAD4   25414   6       25583   25584   25587   25586   0.      0.
CQUAD4   25415   6       25589   25590   25593   25592   0.      0.
CQUAD4   25416   6       25595   25596   25599   25598   0.      0.
CQUAD4   25417   6       25601   25602   25605   25604   0.      0.
CQUAD4   25418   6       25604   25605   25608   25607   0.      0.
CQUAD4   25419   6       25610   25611   25614   25613   0.      0.
CQUAD4   25420   6       25616   25617   25620   25619   0.      0.
CQUAD4   25421   6       25622   25623   25626   25625   0.      0.
CQUAD4   25422   6       25625   25626   25629   25628   0.      0.
CQUAD4   25423   6       25631   25632   25635   25634   0.      0.
CQUAD4   25424   6       25637   25638   25641   25640   0.      0.
CQUAD4   25425   6       25643   25644   25647   25646   0.      0.
CQUAD4   25426   6       25646   25647   25650   25649   0.      0.
CQUAD4   25427   6       25652   25653   25656   25655   0.      0.
CQUAD4   25428   6       25658   25659   25662   25661   0.      0.
CQUAD4   25429   6       25664   25665   25668   25667   0.      0.
CQUAD4   25430   6       25667   25668   25671   25670   0.      0.
CQUAD4   25431   6       25673   25674   25677   25676   0.      0.
CQUAD4   25432   6       25679   25680   25683   25682   0.      0.
CQUAD4   25433   6       25487   25488   25491   25490   0.      0.
CQUAD4   25434   6       25493   25494   25497   25496   0.      0.
CQUAD4   25435   6       25499   25500   25503   25502   0.      0.
CQUAD4   25436   6       25508   25509   25512   25511   0.      0.
CQUAD4   25437   6       25514   25515   25518   25517   0.      0.
CQUAD4   25438   6       25520   25521   25524   25523   0.      0.
CQUAD4   25439   6       25529   25530   25533   25532   0.      0.
CQUAD4   25440   6       25535   25536   25539   25538   0.      0.
CQUAD4   25441   6       25541   25542   25545   25544   0.      0.
CQUAD4   25442   6       25550   25551   25554   25553   0.      0.
CQUAD4   25443   6       25556   25557   25560   25559   0.      0.
CQUAD4   25444   6       25562   25563   25566   25565   0.      0.
CQUAD4   25445   6       25571   25572   25575   25574   0.      0.
CQUAD4   25446   6       25577   25578   25581   25580   0.      0.
CQUAD4   25447   6       25586   25587   25590   25589   0.      0.
CQUAD4   25448   6       25592   25593   25596   25595   0.      0.
CQUAD4   25449   6       25598   25599   25602   25601   0.      0.
CQUAD4   25450   6       25607   25608   25611   25610   0.      0.
CQUAD4   25451   6       25613   25614   25617   25616   0.      0.
CQUAD4   25452   6       25619   25620   25623   25622   0.      0.
CQUAD4   25453   6       25628   25629   25632   25631   0.      0.
CQUAD4   25454   6       25634   25635   25638   25637   0.      0.
CQUAD4   25455   6       25640   25641   25644   25643   0.      0.
CQUAD4   25456   6       25649   25650   25653   25652   0.      0.
CQUAD4   25457   6       25655   25656   25659   25658   0.      0.
CQUAD4   25458   6       25661   25662   25665   25664   0.      0.
CQUAD4   25459   6       25670   25671   25674   25673   0.      0.
CQUAD4   25460   6       25676   25677   25680   25679   0.      0.
CQUAD4   25461   6       25682   25683   25686   25685   0.      0.
CQUAD4   25462   6       25421   25490   25493   25422   0.      0.
CQUAD4   25463   6       25423   25496   25499   25424   0.      0.
CQUAD4   25464   6       25425   25502   25505   25426   0.      0.
CQUAD4   25465   6       25426   25505   25508   25427   0.      0.
CQUAD4   25466   6       25428   25511   25514   25429   0.      0.
CQUAD4   25467   6       25430   25517   25520   25431   0.      0.
CQUAD4   25468   6       25432   25523   25526   25433   0.      0.
CQUAD4   25469   6       25433   25526   25529   25434   0.      0.
CQUAD4   25470   6       25435   25532   25535   25436   0.      0.
CQUAD4   25471   6       25437   25538   25541   25438   0.      0.
CQUAD4   25472   6       25439   25544   25547   25440   0.      0.
CQUAD4   25473   6       25440   25547   25550   25441   0.      0.
CQUAD4   25474   6       25442   25553   25556   25443   0.      0.
CQUAD4   25475   6       25444   25559   25562   25445   0.      0.
CQUAD4   25476   6       25446   25565   25568   25447   0.      0.
CQUAD4   25477   6       25447   25568   25571   25448   0.      0.
CQUAD4   25478   6       25449   25574   25577   25450   0.      0.
CQUAD4   25479   6       25451   25580   25583   25452   0.      0.
CQUAD4   25480   6       25452   25583   25586   25453   0.      0.
CQUAD4   25481   6       25454   25589   25592   25455   0.      0.
CQUAD4   25482   6       25456   25595   25598   25457   0.      0.
CQUAD4   25483   6       25458   25601   25604   25459   0.      0.
CQUAD4   25484   6       25459   25604   25607   25460   0.      0.
CQUAD4   25485   6       25461   25610   25613   25462   0.      0.
CQUAD4   25486   6       25463   25616   25619   25464   0.      0.
CQUAD4   25487   6       25465   25622   25625   25466   0.      0.
CQUAD4   25488   6       25466   25625   25628   25467   0.      0.
CQUAD4   25489   6       25468   25631   25634   25469   0.      0.
CQUAD4   25490   6       25470   25637   25640   25471   0.      0.
CQUAD4   25491   6       25472   25643   25646   25473   0.      0.
CQUAD4   25492   6       25473   25646   25649   25474   0.      0.
CQUAD4   25493   6       25475   25652   25655   25476   0.      0.
CQUAD4   25494   6       25477   25658   25661   25478   0.      0.
CQUAD4   25495   6       25479   25664   25667   25480   0.      0.
CQUAD4   25496   6       25480   25667   25670   25481   0.      0.
CQUAD4   25497   6       25482   25673   25676   25483   0.      0.
CQUAD4   25498   6       25484   25679   25682   25485   0.      0.
CQUAD4   25499   6       25420   25487   25490   25421   0.      0.
CQUAD4   25500   6       25422   25493   25496   25423   0.      0.
CQUAD4   25501   6       25424   25499   25502   25425   0.      0.
CQUAD4   25502   6       25427   25508   25511   25428   0.      0.
CQUAD4   25503   6       25429   25514   25517   25430   0.      0.
CQUAD4   25504   6       25431   25520   25523   25432   0.      0.
CQUAD4   25505   6       25434   25529   25532   25435   0.      0.
CQUAD4   25506   6       25436   25535   25538   25437   0.      0.
CQUAD4   25507   6       25438   25541   25544   25439   0.      0.
CQUAD4   25508   6       25441   25550   25553   25442   0.      0.
CQUAD4   25509   6       25443   25556   25559   25444   0.      0.
CQUAD4   25510   6       25445   25562   25565   25446   0.      0.
CQUAD4   25511   6       25448   25571   25574   25449   0.      0.
CQUAD4   25512   6       25450   25577   25580   25451   0.      0.
CQUAD4   25513   6       25453   25586   25589   25454   0.      0.
CQUAD4   25514   6       25455   25592   25595   25456   0.      0.
CQUAD4   25515   6       25457   25598   25601   25458   0.      0.
CQUAD4   25516   6       25460   25607   25610   25461   0.      0.
CQUAD4   25517   6       25462   25613   25616   25463   0.      0.
CQUAD4   25518   6       25464   25619   25622   25465   0.      0.
CQUAD4   25519   6       25467   25628   25631   25468   0.      0.
CQUAD4   25520   6       25469   25634   25637   25470   0.      0.
CQUAD4   25521   6       25471   25640   25643   25472   0.      0.
CQUAD4   25522   6       25474   25649   25652   25475   0.      0.
CQUAD4   25523   6       25476   25655   25658   25477   0.      0.
CQUAD4   25524   6       25478   25661   25664   25479   0.      0.
CQUAD4   25525   6       25481   25670   25673   25482   0.      0.
CQUAD4   25526   6       25483   25676   25679   25484   0.      0.
CQUAD4   25527   6       25485   25682   25685   25486   0.      0.
CQUAD4   25528   6       25420   25688   25006   25421   0.      0.
CQUAD4   25529   6       25421   25006   25690   25422   0.      0.
CQUAD4   25530   6       25422   25690   25692   25423   0.      0.
CQUAD4   25531   6       25423   25692   25694   25424   0.      0.
CQUAD4   25532   6       25424   25694   25696   25425   0.      0.
CQUAD4   25533   6       25425   25696   25698   25426   0.      0.
CQUAD4   25534   6       25426   25698   25700   25427   0.      0.
CQUAD4   25535   6       25427   25700   25702   25428   0.      0.
CQUAD4   25536   6       25428   25702   25704   25429   0.      0.
CQUAD4   25537   6       25429   25704   25706   25430   0.      0.
CQUAD4   25538   6       25430   25706   25708   25431   0.      0.
CQUAD4   25539   6       25431   25708   25710   25432   0.      0.
CQUAD4   25540   6       25432   25710   25007   25433   0.      0.
CQUAD4   25541   6       25433   25007   25713   25434   0.      0.
CQUAD4   25542   6       25434   25713   25715   25435   0.      0.
CQUAD4   25543   6       25435   25715   25717   25436   0.      0.
CQUAD4   25544   6       25436   25717   25719   25437   0.      0.
CQUAD4   25545   6       25437   25719   25721   25438   0.      0.
CQUAD4   25546   6       25438   25721   25723   25439   0.      0.
CQUAD4   25547   6       25439   25723   25725   25440   0.      0.
CQUAD4   25548   6       25440   25725   25727   25441   0.      0.
CQUAD4   25549   6       25441   25727   25729   25442   0.      0.
CQUAD4   25550   6       25442   25729   25731   25443   0.      0.
CQUAD4   25551   6       25443   25731   25733   25444   0.      0.
CQUAD4   25552   6       25444   25733   25735   25445   0.      0.
CQUAD4   25553   6       25445   25735   25737   25446   0.      0.
CQUAD4   25554   6       25446   25737   25022   25447   0.      0.
CQUAD4   25555   6       25447   25022   25740   25448   0.      0.
CQUAD4   25556   6       25448   25740   25742   25449   0.      0.
CQUAD4   25557   6       25449   25742   25744   25450   0.      0.
CQUAD4   25558   6       25450   25744   25746   25451   0.      0.
CQUAD4   25559   6       25451   25746   25748   25452   0.      0.
CQUAD4   25560   6       25452   25748   25750   25453   0.      0.
CQUAD4   25561   6       25453   25750   25752   25454   0.      0.
CQUAD4   25562   6       25454   25752   25754   25455   0.      0.
CQUAD4   25563   6       25455   25754   25756   25456   0.      0.
CQUAD4   25564   6       25456   25756   25758   25457   0.      0.
CQUAD4   25565   6       25457   25758   25760   25458   0.      0.
CQUAD4   25566   6       25458   25760   25762   25459   0.      0.
CQUAD4   25567   6       25459   25762   25008   25460   0.      0.
CQUAD4   25568   6       25460   25008   25765   25461   0.      0.
CQUAD4   25569   6       25461   25765   25767   25462   0.      0.
CQUAD4   25570   6       25462   25767   25769   25463   0.      0.
CQUAD4   25571   6       25463   25769   25771   25464   0.      0.
CQUAD4   25572   6       25464   25771   25773   25465   0.      0.
CQUAD4   25573   6       25465   25773   25775   25466   0.      0.
CQUAD4   25574   6       25466   25775   25777   25467   0.      0.
CQUAD4   25575   6       25467   25777   25779   25468   0.      0.
CQUAD4   25576   6       25468   25779   25781   25469   0.      0.
CQUAD4   25577   6       25469   25781   25783   25470   0.      0.
CQUAD4   25578   6       25470   25783   25785   25471   0.      0.
CQUAD4   25579   6       25471   25785   25787   25472   0.      0.
CQUAD4   25580   6       25472   25787   25789   25473   0.      0.
CQUAD4   25581   6       25473   25789   25009   25474   0.      0.
CQUAD4   25582   6       25474   25009   25792   25475   0.      0.
CQUAD4   25583   6       25475   25792   25794   25476   0.      0.
CQUAD4   25584   6       25476   25794   25796   25477   0.      0.
CQUAD4   25585   6       25477   25796   25798   25478   0.      0.
CQUAD4   25586   6       25478   25798   25800   25479   0.      0.
CQUAD4   25587   6       25479   25800   25802   25480   0.      0.
CQUAD4   25588   6       25480   25802   25804   25481   0.      0.
CQUAD4   25589   6       25481   25804   25806   25482   0.      0.
CQUAD4   25590   6       25482   25806   25808   25483   0.      0.
CQUAD4   25591   6       25483   25808   25810   25484   0.      0.
CTRIA3   25592   6       25688   25006   25689   0.      0.
CQUAD4   25593   6       25006   25689   25691   25690   0.      0.
CQUAD4   25594   6       25690   25691   25693   25692   0.      0.
CQUAD4   25595   6       25692   25693   25695   25694   0.      0.
CQUAD4   25596   6       25694   25695   25697   25696   0.      0.
CQUAD4   25597   6       25696   25697   25699   25698   0.      0.
CQUAD4   25598   6       25698   25699   25701   25700   0.      0.
CQUAD4   25599   6       25700   25701   25703   25702   0.      0.
CQUAD4   25600   6       25702   25703   25705   25704   0.      0.
CQUAD4   25601   6       25704   25705   25707   25706   0.      0.
CQUAD4   25602   6       25706   25707   25709   25708   0.      0.
CQUAD4   25603   6       25708   25709   25711   25710   0.      0.
CQUAD4   25604   6       25710   25711   25712   25007   0.      0.
CQUAD4   25605   6       25007   25712   25714   25713   0.      0.
CQUAD4   25606   6       25713   25714   25716   25715   0.      0.
CQUAD4   25607   6       25715   25716   25718   25717   0.      0.
CQUAD4   25608   6       25717   25718   25720   25719   0.      0.
CQUAD4   25609   6       25719   25720   25722   25721   0.      0.
CQUAD4   25610   6       25721   25722   25724   25723   0.      0.
CQUAD4   25611   6       25723   25724   25726   25725   0.      0.
CQUAD4   25612   6       25725   25726   25728   25727   0.      0.
CQUAD4   25613   6       25727   25728   25730   25729   0.      0.
CQUAD4   25614   6       25729   25730   25732   25731   0.      0.
CQUAD4   25615   6       25731   25732   25734   25733   0.      0.
CQUAD4   25616   6       25733   25734   25736   25735   0.      0.
CQUAD4   25617   6       25735   25736   25738   25737   0.      0.
CQUAD4   25618   6       25737   25738   25739   25022   0.      0.
CQUAD4   25619   6       25022   25739   25741   25740   0.      0.
CQUAD4   25620   6       25740   25741   25743   25742   0.      0.
CQUAD4   25621   6       25742   25743   25745   25744   0.      0.
CQUAD4   25622   6       25744   25745   25747   25746   0.      0.
CQUAD4   25623   6       25746   25747   25749   25748   0.      0.
CQUAD4   25624   6       25748   25749   25751   25750   0.      0.
CQUAD4   25625   6       25750   25751   25753   25752   0.      0.
CQUAD4   25626   6       25752   25753   25755   25754   0.      0.
CQUAD4   25627   6       25754   25755   25757   25756   0.      0.
CQUAD4   25628   6       25756   25757   25759   25758   0.      0.
CQUAD4   25629   6       25758   25759   25761   25760   0.      0.
CQUAD4   25630   6       25760   25761   25763   25762   0.      0.
CQUAD4   25631   6       25762   25763   25764   25008   0.      0.
CQUAD4   25632   6       25008   25764   25766   25765   0.      0.
CQUAD4   25633   6       25765   25766   25768   25767   0.      0.
CQUAD4   25634   6       25767   25768   25770   25769   0.      0.
CQUAD4   25635   6       25769   25770   25772   25771   0.      0.
CQUAD4   25636   6       25771   25772   25774   25773   0.      0.
CQUAD4   25637   6       25773   25774   25776   25775   0.      0.
CQUAD4   25638   6       25775   25776   25778   25777   0.      0.
CQUAD4   25639   6       25777   25778   25780   25779   0.      0.
CQUAD4   25640   6       25779   25780   25782   25781   0.      0.
CQUAD4   25641   6       25781   25782   25784   25783   0.      0.
CQUAD4   25642   6       25783   25784   25786   25785   0.      0.
CQUAD4   25643   6       25785   25786   25788   25787   0.      0.
CQUAD4   25644   6       25787   25788   25790   25789   0.      0.
CQUAD4   25645   6       25789   25790   25791   25009   0.      0.
CQUAD4   25646   6       25009   25791   25793   25792   0.      0.
CQUAD4   25647   6       25792   25793   25795   25794   0.      0.
CQUAD4   25648   6       25794   25795   25797   25796   0.      0.
CQUAD4   25649   6       25796   25797   25799   25798   0.      0.
CQUAD4   25650   6       25798   25799   25801   25800   0.      0.
CQUAD4   25651   6       25800   25801   25803   25802   0.      0.
CQUAD4   25652   6       25802   25803   25805   25804   0.      0.
CQUAD4   25653   6       25804   25805   25807   25806   0.      0.
CQUAD4   25654   6       25806   25807   25809   25808   0.      0.
CQUAD4   25655   6       25808   25809   25811   25810   0.      0.
CQUAD4   25656   6       25219   25813   25816   25220   0.      0.
CQUAD4   25657   6       25220   25816   25819   25221   0.      0.
CQUAD4   25658   6       25221   25819   25822   25222   0.      0.
CQUAD4   25659   6       25222   25822   25825   25223   0.      0.
CQUAD4   25660   6       25223   25825   25828   25224   0.      0.
CQUAD4   25661   6       25224   25828   25831   25225   0.      0.
CQUAD4   25662   6       25225   25831   25834   25226   0.      0.
CQUAD4   25663   6       25226   25834   25837   25227   0.      0.
CQUAD4   25664   6       25227   25837   25840   25228   0.      0.
CQUAD4   25665   6       25228   25840   25843   25229   0.      0.
CQUAD4   25666   6       25229   25843   25846   25230   0.      0.
CQUAD4   25667   6       25230   25846   25849   25231   0.      0.
CQUAD4   25668   6       25231   25849   25852   25232   0.      0.
CQUAD4   25669   6       25232   25852   25855   25233   0.      0.
CQUAD4   25670   6       25233   25855   25858   25234   0.      0.
CQUAD4   25671   6       25234   25858   25861   25235   0.      0.
CQUAD4   25672   6       25235   25861   25864   25236   0.      0.
CQUAD4   25673   6       25236   25864   25867   25237   0.      0.
CQUAD4   25674   6       25237   25867   25870   25238   0.      0.
CQUAD4   25675   6       25238   25870   25873   25239   0.      0.
CQUAD4   25676   6       25239   25873   25876   25240   0.      0.
CQUAD4   25677   6       25240   25876   25879   25241   0.      0.
CQUAD4   25678   6       25241   25879   25882   25242   0.      0.
CQUAD4   25679   6       25242   25882   25885   25243   0.      0.
CQUAD4   25680   6       25243   25885   25888   25244   0.      0.
CQUAD4   25681   6       25244   25888   25891   25245   0.      0.
CQUAD4   25682   6       25245   25891   25894   25246   0.      0.
CQUAD4   25683   6       25246   25894   25897   25247   0.      0.
CQUAD4   25684   6       25247   25897   25900   25248   0.      0.
CQUAD4   25685   6       25248   25900   25903   25249   0.      0.
CQUAD4   25686   6       25249   25903   25906   25250   0.      0.
CQUAD4   25687   6       25250   25906   25909   25251   0.      0.
CQUAD4   25688   6       25251   25909   25912   25252   0.      0.
CQUAD4   25689   6       25252   25912   25915   25253   0.      0.
CQUAD4   25690   6       25253   25915   25918   25254   0.      0.
CQUAD4   25691   6       25254   25918   25921   25255   0.      0.
CQUAD4   25692   6       25255   25921   25924   25256   0.      0.
CQUAD4   25693   6       25256   25924   25927   25257   0.      0.
CQUAD4   25694   6       25257   25927   25930   25258   0.      0.
CQUAD4   25695   6       25258   25930   25933   25259   0.      0.
CQUAD4   25696   6       25259   25933   25936   25260   0.      0.
CQUAD4   25697   6       25260   25936   25939   25261   0.      0.
CQUAD4   25698   6       25261   25939   25942   25262   0.      0.
CQUAD4   25699   6       25262   25942   25945   25263   0.      0.
CQUAD4   25700   6       25263   25945   25948   25264   0.      0.
CQUAD4   25701   6       25264   25948   25951   25265   0.      0.
CQUAD4   25702   6       25265   25951   25954   25266   0.      0.
CQUAD4   25703   6       25266   25954   25957   25267   0.      0.
CQUAD4   25704   6       25267   25957   25960   25268   0.      0.
CQUAD4   25705   6       25268   25960   25963   25269   0.      0.
CQUAD4   25706   6       25269   25963   25966   25270   0.      0.
CQUAD4   25707   6       25270   25966   25969   25271   0.      0.
CQUAD4   25708   6       25271   25969   25972   25272   0.      0.
CQUAD4   25709   6       25272   25972   25975   25273   0.      0.
CQUAD4   25710   6       25273   25975   25978   25274   0.      0.
CQUAD4   25711   6       25274   25978   25981   25275   0.      0.
CQUAD4   25712   6       25275   25981   25984   25276   0.      0.
CQUAD4   25713   6       25276   25984   25987   25277   0.      0.
CQUAD4   25714   6       25277   25987   25990   25278   0.      0.
CQUAD4   25715   6       25278   25990   25993   25279   0.      0.
CQUAD4   25716   6       25279   25993   25996   25280   0.      0.
CQUAD4   25717   6       25280   25996   25999   25281   0.      0.
CQUAD4   25718   6       25281   25999   26002   25282   0.      0.
CQUAD4   25719   6       25282   26002   26005   25283   0.      0.
CQUAD4   25720   6       25283   26005   26008   25284   0.      0.
CQUAD4   25721   6       25284   26008   26011   25285   0.      0.
CQUAD4   25722   6       25813   25814   25817   25816   0.      0.
CQUAD4   25723   6       25816   25817   25820   25819   0.      0.
CQUAD4   25724   6       25819   25820   25823   25822   0.      0.
CQUAD4   25725   6       25822   25823   25826   25825   0.      0.
CQUAD4   25726   6       25825   25826   25829   25828   0.      0.
CQUAD4   25727   6       25828   25829   25832   25831   0.      0.
CQUAD4   25728   6       25831   25832   25835   25834   0.      0.
CQUAD4   25729   6       25834   25835   25838   25837   0.      0.
CQUAD4   25730   6       25837   25838   25841   25840   0.      0.
CQUAD4   25731   6       25840   25841   25844   25843   0.      0.
CQUAD4   25732   6       25843   25844   25847   25846   0.      0.
CQUAD4   25733   6       25846   25847   25850   25849   0.      0.
CQUAD4   25734   6       25849   25850   25853   25852   0.      0.
CQUAD4   25735   6       25852   25853   25856   25855   0.      0.
CQUAD4   25736   6       25855   25856   25859   25858   0.      0.
CQUAD4   25737   6       25861   25862   25865   25864   0.      0.
CQUAD4   25738   6       25864   25865   25868   25867   0.      0.
CQUAD4   25739   6       25858   25859   25862   25861   0.      0.
CQUAD4   25740   6       25867   25868   25871   25870   0.      0.
CQUAD4   25741   6       25876   25877   25880   25879   0.      0.
CQUAD4   25742   6       25879   25880   25883   25882   0.      0.
CQUAD4   25743   6       25870   25871   25874   25873   0.      0.
CQUAD4   25744   6       25873   25874   25877   25876   0.      0.
CQUAD4   25745   6       25882   25883   25886   25885   0.      0.
CQUAD4   25746   6       25885   25886   25889   25888   0.      0.
CQUAD4   25747   6       25891   25892   25895   25894   0.      0.
CQUAD4   25748   6       25894   25895   25898   25897   0.      0.
CQUAD4   25749   6       25888   25889   25892   25891   0.      0.
CQUAD4   25750   6       25897   25898   25901   25900   0.      0.
CQUAD4   25751   6       25900   25901   25904   25903   0.      0.
CQUAD4   25752   6       25903   25904   25907   25906   0.      0.
CQUAD4   25753   6       25906   25907   25910   25909   0.      0.
CQUAD4   25754   6       25909   25910   25913   25912   0.      0.
CQUAD4   25755   6       25912   25913   25916   25915   0.      0.
CQUAD4   25756   6       25918   25919   25922   25921   0.      0.
CQUAD4   25757   6       25921   25922   25925   25924   0.      0.
CQUAD4   25758   6       25924   25925   25928   25927   0.      0.
CQUAD4   25759   6       25915   25916   25919   25918   0.      0.
CQUAD4   25760   6       25927   25928   25931   25930   0.      0.
CQUAD4   25761   6       25933   25934   25937   25936   0.      0.
CQUAD4   25762   6       25936   25937   25940   25939   0.      0.
CQUAD4   25763   6       25939   25940   25943   25942   0.      0.
CQUAD4   25764   6       25930   25931   25934   25933   0.      0.
CQUAD4   25765   6       25942   25943   25946   25945   0.      0.
CQUAD4   25766   6       25948   25949   25952   25951   0.      0.
CQUAD4   25767   6       25951   25952   25955   25954   0.      0.
CQUAD4   25768   6       25954   25955   25958   25957   0.      0.
CQUAD4   25769   6       25945   25946   25949   25948   0.      0.
CQUAD4   25770   6       25957   25958   25961   25960   0.      0.
CQUAD4   25771   6       25963   25964   25967   25966   0.      0.
CQUAD4   25772   6       25966   25967   25970   25969   0.      0.
CQUAD4   25773   6       25960   25961   25964   25963   0.      0.
CQUAD4   25774   6       25969   25970   25973   25972   0.      0.
CQUAD4   25775   6       25978   25979   25982   25981   0.      0.
CQUAD4   25776   6       25981   25982   25985   25984   0.      0.
CQUAD4   25777   6       25972   25973   25976   25975   0.      0.
CQUAD4   25778   6       25975   25976   25979   25978   0.      0.
CQUAD4   25779   6       25984   25985   25988   25987   0.      0.
CQUAD4   25780   6       25993   25994   25997   25996   0.      0.
CQUAD4   25781   6       25996   25997   26000   25999   0.      0.
CQUAD4   25782   6       25987   25988   25991   25990   0.      0.
CQUAD4   25783   6       25990   25991   25994   25993   0.      0.
CQUAD4   25784   6       25999   26000   26003   26002   0.      0.
CQUAD4   25785   6       26008   26009   26012   26011   0.      0.
CQUAD4   25786   6       26002   26003   26006   26005   0.      0.
CQUAD4   25787   6       26005   26006   26009   26008   0.      0.
CQUAD4   25788   6       25820   25821   25824   25823   0.      0.
CQUAD4   25789   6       25814   25815   25818   25817   0.      0.
CQUAD4   25790   6       25817   25818   25821   25820   0.      0.
CQUAD4   25791   6       25823   25824   25827   25826   0.      0.
CQUAD4   25792   6       25835   25836   25839   25838   0.      0.
CQUAD4   25793   6       25826   25827   25830   25829   0.      0.
CQUAD4   25794   6       25829   25830   25833   25832   0.      0.
CQUAD4   25795   6       25832   25833   25836   25835   0.      0.
CQUAD4   25796   6       25838   25839   25842   25841   0.      0.
CQUAD4   25797   6       25841   25842   25845   25844   0.      0.
CQUAD4   25798   6       25844   25845   25848   25847   0.      0.
CQUAD4   25799   6       25847   25848   25851   25850   0.      0.
CQUAD4   25800   6       25850   25851   25854   25853   0.      0.
CQUAD4   25801   6       25853   25854   25857   25856   0.      0.
CQUAD4   25802   6       25856   25857   25860   25859   0.      0.
CQUAD4   25803   6       25859   25860   25863   25862   0.      0.
CQUAD4   25804   6       25862   25863   25866   25865   0.      0.
CQUAD4   25805   6       25865   25866   25869   25868   0.      0.
CQUAD4   25806   6       25868   25869   25872   25871   0.      0.
CQUAD4   25807   6       25871   25872   25875   25874   0.      0.
CQUAD4   25808   6       25874   25875   25878   25877   0.      0.
CQUAD4   25809   6       25877   25878   25881   25880   0.      0.
CQUAD4   25810   6       25880   25881   25884   25883   0.      0.
CQUAD4   25811   6       25883   25884   25887   25886   0.      0.
CQUAD4   25812   6       25886   25887   25890   25889   0.      0.
CQUAD4   25813   6       25889   25890   25893   25892   0.      0.
CQUAD4   25814   6       25892   25893   25896   25895   0.      0.
CQUAD4   25815   6       25895   25896   25899   25898   0.      0.
CQUAD4   25816   6       25898   25899   25902   25901   0.      0.
CQUAD4   25817   6       25901   25902   25905   25904   0.      0.
CQUAD4   25818   6       25904   25905   25908   25907   0.      0.
CQUAD4   25819   6       25907   25908   25911   25910   0.      0.
CQUAD4   25820   6       25910   25911   25914   25913   0.      0.
CQUAD4   25821   6       25913   25914   25917   25916   0.      0.
CQUAD4   25822   6       25916   25917   25920   25919   0.      0.
CQUAD4   25823   6       25919   25920   25923   25922   0.      0.
CQUAD4   25824   6       25922   25923   25926   25925   0.      0.
CQUAD4   25825   6       25925   25926   25929   25928   0.      0.
CQUAD4   25826   6       25928   25929   25932   25931   0.      0.
CQUAD4   25827   6       25931   25932   25935   25934   0.      0.
CQUAD4   25828   6       25934   25935   25938   25937   0.      0.
CQUAD4   25829   6       25940   25941   25944   25943   0.      0.
CQUAD4   25830   6       25943   25944   25947   25946   0.      0.
CQUAD4   25831   6       25946   25947   25950   25949   0.      0.
CQUAD4   25832   6       25937   25938   25941   25940   0.      0.
CQUAD4   25833   6       25949   25950   25953   25952   0.      0.
CQUAD4   25834   6       25952   25953   25956   25955   0.      0.
CQUAD4   25835   6       25955   25956   25959   25958   0.      0.
CQUAD4   25836   6       25958   25959   25962   25961   0.      0.
CQUAD4   25837   6       25961   25962   25965   25964   0.      0.
CQUAD4   25838   6       25964   25965   25968   25967   0.      0.
CQUAD4   25839   6       25970   25971   25974   25973   0.      0.
CQUAD4   25840   6       25973   25974   25977   25976   0.      0.
CQUAD4   25841   6       25976   25977   25980   25979   0.      0.
CQUAD4   25842   6       25967   25968   25971   25970   0.      0.
CQUAD4   25843   6       25979   25980   25983   25982   0.      0.
CQUAD4   25844   6       25985   25986   25989   25988   0.      0.
CQUAD4   25845   6       25988   25989   25992   25991   0.      0.
CQUAD4   25846   6       25991   25992   25995   25994   0.      0.
CQUAD4   25847   6       25982   25983   25986   25985   0.      0.
CQUAD4   25848   6       25994   25995   25998   25997   0.      0.
CQUAD4   25849   6       26003   26004   26007   26006   0.      0.
CQUAD4   25850   6       26006   26007   26010   26009   0.      0.
CQUAD4   25851   6       25997   25998   26001   26000   0.      0.
CQUAD4   25852   6       26000   26001   26004   26003   0.      0.
CQUAD4   25853   6       26009   26010   26013   26012   0.      0.
CQUAD4   25854   6       25815   25024   25025   25818   0.      0.
CQUAD4   25855   6       25818   25025   25026   25821   0.      0.
CQUAD4   25856   6       25827   25028   25029   25830   0.      0.
CQUAD4   25857   6       25830   25029   25030   25833   0.      0.
CQUAD4   25858   6       25821   25026   25027   25824   0.      0.
CQUAD4   25859   6       25824   25027   25028   25827   0.      0.
CQUAD4   25860   6       25833   25030   25031   25836   0.      0.
CQUAD4   25861   6       25842   25033   25034   25845   0.      0.
CQUAD4   25862   6       25845   25034   25035   25848   0.      0.
CQUAD4   25863   6       25836   25031   25032   25839   0.      0.
CQUAD4   25864   6       25839   25032   25033   25842   0.      0.
CQUAD4   25865   6       25848   25035   25036   25851   0.      0.
CQUAD4   25866   6       25857   25038   25039   25860   0.      0.
CQUAD4   25867   6       25860   25039   25040   25863   0.      0.
CQUAD4   25868   6       25851   25036   25037   25854   0.      0.
CQUAD4   25869   6       25854   25037   25038   25857   0.      0.
CQUAD4   25870   6       25875   25044   25045   25878   0.      0.
CQUAD4   25871   6       25863   25040   25041   25866   0.      0.
CQUAD4   25872   6       25866   25041   25042   25869   0.      0.
CQUAD4   25873   6       25869   25042   25043   25872   0.      0.
CQUAD4   25874   6       25872   25043   25044   25875   0.      0.
CQUAD4   25875   6       25878   25045   25046   25881   0.      0.
CQUAD4   25876   6       25890   25049   25050   25893   0.      0.
CQUAD4   25877   6       25881   25046   25047   25884   0.      0.
CQUAD4   25878   6       25884   25047   25048   25887   0.      0.
CQUAD4   25879   6       25887   25048   25049   25890   0.      0.
CQUAD4   25880   6       25893   25050   25051   25896   0.      0.
CQUAD4   25881   6       25896   25051   25052   25899   0.      0.
CQUAD4   25882   6       25899   25052   25053   25902   0.      0.
CQUAD4   25883   6       25902   25053   25054   25905   0.      0.
CQUAD4   25884   6       25905   25054   25055   25908   0.      0.
CQUAD4   25885   6       25908   25055   25056   25911   0.      0.
CQUAD4   25886   6       25911   25056   25057   25914   0.      0.
CQUAD4   25887   6       25914   25057   25058   25917   0.      0.
CQUAD4   25888   6       25917   25058   25059   25920   0.      0.
CQUAD4   25889   6       25920   25059   25060   25923   0.      0.
CQUAD4   25890   6       25923   25060   25061   25926   0.      0.
CQUAD4   25891   6       25926   25061   25062   25929   0.      0.
CQUAD4   25892   6       25929   25062   25063   25932   0.      0.
CQUAD4   25893   6       25932   25063   25064   25935   0.      0.
CQUAD4   25894   6       25935   25064   25065   25938   0.      0.
CQUAD4   25895   6       25938   25065   25066   25941   0.      0.
CQUAD4   25896   6       25941   25066   25067   25944   0.      0.
CQUAD4   25897   6       25944   25067   25068   25947   0.      0.
CQUAD4   25898   6       25947   25068   25069   25950   0.      0.
CQUAD4   25899   6       25950   25069   25070   25953   0.      0.
CQUAD4   25900   6       25953   25070   25071   25956   0.      0.
CQUAD4   25901   6       25956   25071   25072   25959   0.      0.
CQUAD4   25902   6       25959   25072   25073   25962   0.      0.
CQUAD4   25903   6       25962   25073   25074   25965   0.      0.
CQUAD4   25904   6       25965   25074   25075   25968   0.      0.
CQUAD4   25905   6       25968   25075   25076   25971   0.      0.
CQUAD4   25906   6       25971   25076   25077   25974   0.      0.
CQUAD4   25907   6       25974   25077   25078   25977   0.      0.
CQUAD4   25908   6       25980   25079   25080   25983   0.      0.
CQUAD4   25909   6       25983   25080   25081   25986   0.      0.
CQUAD4   25910   6       25977   25078   25079   25980   0.      0.
CQUAD4   25911   6       25986   25081   25082   25989   0.      0.
CQUAD4   25912   6       25989   25082   25083   25992   0.      0.
CQUAD4   25913   6       25995   25084   25085   25998   0.      0.
CQUAD4   25914   6       25998   25085   25086   26001   0.      0.
CQUAD4   25915   6       25992   25083   25084   25995   0.      0.
CQUAD4   25916   6       26001   25086   25087   26004   0.      0.
CQUAD4   25917   6       26004   25087   25088   26007   0.      0.
CQUAD4   25918   6       26007   25088   25089   26010   0.      0.
CQUAD4   25919   6       26010   25089   25090   26013   0.      0.
CQUAD4   25920   6       25810   25484   25485   25023   0.      0.
CQUAD4   25921   6       25811   25810   25023   26014   0.      0.
CTRIA3   25922   6       26015   25023   26014   0.      0.
CQUAD4   25923   6       25023   25485   25486   26015   0.      0.
CQUAD4   26000   6       26084   26085   26086   28500   0.      0.
CQUAD4   26001   6       26017   26084   28500   26018   0.      0.
CQUAD4   26002   6       26598   26866   25003   26599   0.      0.
CQUAD4   26003   6       28500   26086   26088   26087   0.      0.
CQUAD4   26004   6       26268   26017   26018   26271   0.      0.
CQUAD4   26005   6       26018   28500   26087   26019   0.      0.
CQUAD4   26006   6       25003   26867   26869   26868   0.      0.
CQUAD4   26007   6       26087   26088   26090   26089   0.      0.
CQUAD4   26008   6       26267   26268   26271   26270   0.      0.
CQUAD4   26009   6       26271   26018   26019   26274   0.      0.
CQUAD4   26010   6       26600   26868   26870   26601   0.      0.
CQUAD4   26011   6       26665   26666   26669   26668   0.      0.
CQUAD4   26012   6       26089   26090   26092   26091   0.      0.
CQUAD4   26013   6       26020   26089   26091   26021   0.      0.
CQUAD4   26014   6       26600   26671   26674   26601   0.      0.
CQUAD4   26015   6       26091   26092   26094   26093   0.      0.
CQUAD4   26016   6       26021   26091   26093   26022   0.      0.
CQUAD4   26017   6       26273   26274   26277   26276   0.      0.
CQUAD4   26018   6       26277   26020   26021   26280   0.      0.
CQUAD4   26019   6       26269   26270   26273   26272   0.      0.
CQUAD4   26020   6       26872   26873   26875   26874   0.      0.
CQUAD4   26021   6       26093   26094   26096   26095   0.      0.
CQUAD4   26022   6       26022   26093   26095   26023   0.      0.
CQUAD4   26023   6       26669   26670   26673   26672   0.      0.
CQUAD4   26024   6       26208   26266   26269   26209   0.      0.
CQUAD4   26025   6       26531   26208   26209   26532   0.      0.
CQUAD4   26026   6       26464   26531   26532   26465   0.      0.
CQUAD4   26027   6       26280   26021   26022   26283   0.      0.
CQUAD4   26028   6       26874   26875   26877   26876   0.      0.
CQUAD4   26029   6       26023   26095   26097   26024   0.      0.
CQUAD4   26030   6       26283   26022   26023   26286   0.      0.
CQUAD4   26031   6       26272   26273   26276   26275   0.      0.
CQUAD4   26032   6       26209   26269   26272   26210   0.      0.
CQUAD4   26033   6       26672   26673   26676   26675   0.      0.
CQUAD4   26034   6       26532   26209   26210   26533   0.      0.
CQUAD4   26035   6       26465   26532   26533   26466   0.      0.
CQUAD4   26036   6       26603   26680   26683   26604   0.      0.
CQUAD4   26037   6       26604   26876   26878   26605   0.      0.
CQUAD4   26038   6       26282   26283   26286   26285   0.      0.
CQUAD4   26039   6       26024   26097   26099   26025   0.      0.
CQUAD4   26040   6       26210   26272   26275   26998   0.      0.
CQUAD4   26041   6       26533   26210   26998   26534   0.      0.
CQUAD4   26042   6       26675   26676   26679   26678   0.      0.
CQUAD4   26043   6       26278   26279   26282   26281   0.      0.
CQUAD4   26044   6       26285   26286   26289   26288   0.      0.
CQUAD4   26045   6       26534   26998   26211   26535   0.      0.
CQUAD4   26046   6       26678   26679   26682   26681   0.      0.
CQUAD4   26047   6       26025   26099   26101   26026   0.      0.
CQUAD4   26048   6       26289   26024   26025   26292   0.      0.
CQUAD4   26049   6       26467   26534   26535   26468   0.      0.
CQUAD4   26050   6       26281   26282   26285   26284   0.      0.
CQUAD4   26051   6       26535   26211   26212   26536   0.      0.
CQUAD4   26052   6       26683   26684   26687   26686   0.      0.
CQUAD4   26053   6       26101   26102   26104   26103   0.      0.
CQUAD4   26054   6       26026   26101   26103   26027   0.      0.
CQUAD4   26055   6       26292   26025   26026   26295   0.      0.
CQUAD4   26056   6       26211   26278   26281   26212   0.      0.
CQUAD4   26057   6       26679   26468   26469   26682   0.      0.
CQUAD4   26058   6       26607   26882   26884   26608   0.      0.
CQUAD4   26059   6       26288   26289   26292   26291   0.      0.
CQUAD4   26060   6       26284   26285   26288   26287   0.      0.
CQUAD4   26061   6       26536   26212   26213   26537   0.      0.
CQUAD4   26062   6       26103   26104   26106   26105   0.      0.
CQUAD4   26063   6       26027   26103   26105   26028   0.      0.
CQUAD4   26064   6       26212   26281   26284   26213   0.      0.
CQUAD4   26065   6       26213   26284   26287   26214   0.      0.
CQUAD4   26066   6       26689   26690   26693   26692   0.      0.
CQUAD4   26067   6       26294   26295   26298   26297   0.      0.
CQUAD4   26068   6       26470   26537   26538   26471   0.      0.
CQUAD4   26069   6       26105   26106   26107   25010   0.      0.
CQUAD4   26070   6       26028   26105   25010   26029   0.      0.
CQUAD4   26071   6       26298   26027   26028   26301   0.      0.
CQUAD4   26072   6       26290   26291   26294   26293   0.      0.
CQUAD4   26073   6       26537   26213   26214   26538   0.      0.
CQUAD4   26074   6       26886   26887   26888   25004   0.      0.
CQUAD4   26075   6       26538   26214   26215   26539   0.      0.
CQUAD4   26076   6       26471   26538   26539   27046   0.      0.
CQUAD4   26077   6       26690   26691   26694   26693   0.      0.
CQUAD4   26078   6       25010   26107   26109   26108   0.      0.
CQUAD4   26079   6       26301   26028   26029   26304   0.      0.
CQUAD4   26080   6       26214   26287   26290   26215   0.      0.
CQUAD4   26081   6       26610   25004   26889   26611   0.      0.
CQUAD4   26082   6       26215   26290   26293   26216   0.      0.
CQUAD4   26083   6       26108   26109   26111   26110   0.      0.
CQUAD4   26084   6       26297   26298   26301   26300   0.      0.
CQUAD4   26085   6       25004   26888   26890   26889   0.      0.
CQUAD4   26086   6       26293   26294   26297   26296   0.      0.
CQUAD4   26087   6       26539   26215   26216   26540   0.      0.
CQUAD4   26088   6       26304   26029   26030   26307   0.      0.
CQUAD4   26089   6       26610   26701   26704   26611   0.      0.
CQUAD4   26090   6       26611   26889   26891   26612   0.      0.
CQUAD4   26091   6       26889   26890   26892   26891   0.      0.
CQUAD4   26092   6       26110   26111   26113   26112   0.      0.
CQUAD4   26093   6       26303   26304   26307   26306   0.      0.
CQUAD4   26094   6       26216   26293   26296   26217   0.      0.
CQUAD4   26095   6       26540   26216   26217   26541   0.      0.
CQUAD4   26096   6       26031   26110   26112   26032   0.      0.
CQUAD4   26097   6       26299   26300   26303   26302   0.      0.
CQUAD4   26098   6       26473   26540   26541   26474   0.      0.
CQUAD4   26099   6       26112   26113   26115   26114   0.      0.
CQUAD4   26100   6       26306   26307   26310   26309   0.      0.
CQUAD4   26101   6       26701   26702   26705   26704   0.      0.
CQUAD4   26102   6       26541   26217   26999   26542   0.      0.
CQUAD4   26103   6       26474   26541   26542   26475   0.      0.
CQUAD4   26104   6       26032   26112   26114   26033   0.      0.
CQUAD4   26105   6       26310   26031   26032   26312   0.      0.
CQUAD4   26106   6       26893   26894   26896   26895   0.      0.
CQUAD4   26107   6       26033   26114   26116   26034   0.      0.
CQUAD4   26108   6       26114   26115   26117   26116   0.      0.
CQUAD4   26109   6       26302   26303   26306   26305   0.      0.
CQUAD4   26110   6       26999   26299   26302   27000   0.      0.
CQUAD4   26111   6       26542   26999   27000   26543   0.      0.
CQUAD4   26112   6       26700   26475   26476   26703   0.      0.
CQUAD4   26113   6       26312   26032   26033   26315   0.      0.
CQUAD4   26114   6       26614   26895   26897   26615   0.      0.
CQUAD4   26115   6       26895   26896   26898   26897   0.      0.
CQUAD4   26116   6       26309   26310   26312   27007   0.      0.
CQUAD4   26117   6       26034   26116   26118   26035   0.      0.
CQUAD4   26118   6       26116   26117   26119   26118   0.      0.
CQUAD4   26119   6       26305   26306   26309   26308   0.      0.
CQUAD4   26120   6       27000   26302   26305   26218   0.      0.
CQUAD4   26121   6       26543   27000   26218   26544   0.      0.
CQUAD4   26122   6       26705   26706   26709   26708   0.      0.
CQUAD4   26123   6       26314   26315   26318   26317   0.      0.
CQUAD4   26124   6       26708   26709   26712   26711   0.      0.
CQUAD4   26125   6       26710   26711   26714   26713   0.      0.
CQUAD4   26126   6       26118   26119   26121   26120   0.      0.
CQUAD4   26127   6       26035   26118   26120   26036   0.      0.
CQUAD4   26128   6       26318   26034   26035   26320   0.      0.
CQUAD4   26129   6       26218   26305   26308   26219   0.      0.
CQUAD4   26130   6       26544   26218   26219   26545   0.      0.
CQUAD4   26131   6       26311   27007   26314   26313   0.      0.
CQUAD4   26132   6       26477   26544   26545   26478   0.      0.
CQUAD4   26133   6       26899   26900   26902   26901   0.      0.
CQUAD4   26134   6       26711   26712   26715   26714   0.      0.
CQUAD4   26135   6       26120   26121   26123   26122   0.      0.
CQUAD4   26136   6       26036   26120   26122   26037   0.      0.
CQUAD4   26137   6       26320   26035   26036   26323   0.      0.
CQUAD4   26138   6       26545   26219   26220   26546   0.      0.
CQUAD4   26139   6       26219   26308   26311   26220   0.      0.
CQUAD4   26140   6       26478   26545   26546   26479   0.      0.
CQUAD4   26141   6       26617   26901   26903   26618   0.      0.
CQUAD4   26142   6       26317   26318   26320   27008   0.      0.
CQUAD4   26143   6       26901   26902   26904   26903   0.      0.
CQUAD4   26144   6       26313   26314   26317   26316   0.      0.
CQUAD4   26145   6       26546   26220   26221   26547   0.      0.
CQUAD4   26146   6       26122   26123   26125   26124   0.      0.
CQUAD4   26147   6       26037   26122   26124   26038   0.      0.
CQUAD4   26148   6       26220   26311   26313   26221   0.      0.
CQUAD4   26149   6       26719   26720   26723   26722   0.      0.
CQUAD4   26150   6       26322   26323   26326   26325   0.      0.
CQUAD4   26151   6       26547   26221   26222   26548   0.      0.
CQUAD4   26152   6       26038   26124   26126   26039   0.      0.
CQUAD4   26153   6       26326   26037   26038   26329   0.      0.
CQUAD4   26154   6       26319   27008   26322   26321   0.      0.
CQUAD4   26155   6       26221   26313   26316   26222   0.      0.
CQUAD4   26156   6       26480   26547   26548   26481   0.      0.
CQUAD4   26157   6       26905   26906   26908   26907   0.      0.
CQUAD4   26158   6       26722   26723   26726   26725   0.      0.
CQUAD4   26159   6       26548   26222   26223   26549   0.      0.
CQUAD4   26160   6       26329   26038   26039   26332   0.      0.
CQUAD4   26161   6       26223   26319   26321   26224   0.      0.
CQUAD4   26162   6       26907   26908   26910   26909   0.      0.
CQUAD4   26163   6       26325   26326   26329   26328   0.      0.
CQUAD4   26164   6       26619   26728   26731   26620   0.      0.
CQUAD4   26165   6       26321   26322   26325   26324   0.      0.
CQUAD4   26166   6       26549   26223   26224   26550   0.      0.
CQUAD4   26167   6       26040   26128   26130   26041   0.      0.
CQUAD4   26168   6       26332   26039   26040   26335   0.      0.
CQUAD4   26169   6       26621   26909   26911   26622   0.      0.
CQUAD4   26170   6       26224   26321   26324   26225   0.      0.
CQUAD4   26171   6       26620   26731   26734   26621   0.      0.
CQUAD4   26172   6       26130   26994   26132   26131   0.      0.
CQUAD4   26173   6       26328   26329   26332   26331   0.      0.
CQUAD4   26174   6       26324   26325   26328   26327   0.      0.
CQUAD4   26175   6       26550   26224   26225   26551   0.      0.
CQUAD4   26176   6       26483   26550   26551   26484   0.      0.
CQUAD4   26177   6       26041   26130   26131   26042   0.      0.
CQUAD4   26178   6       26225   26324   26327   26226   0.      0.
CQUAD4   26179   6       26334   26335   26338   26337   0.      0.
CQUAD4   26180   6       26731   26732   26735   26734   0.      0.
CQUAD4   26181   6       26551   26225   26226   26552   0.      0.
CQUAD4   26182   6       26338   26041   26042   26341   0.      0.
CQUAD4   26183   6       26330   26331   26334   26333   0.      0.
CQUAD4   26184   6       26484   26551   26552   26485   0.      0.
CQUAD4   26185   6       26913   26914   26915   25005   0.      0.
CQUAD4   26186   6       25011   26133   26135   26134   0.      0.
CQUAD4   26187   6       26226   26327   26330   26227   0.      0.
CQUAD4   26188   6       26552   26226   26227   26553   0.      0.
CQUAD4   26189   6       26730   26485   26486   26733   0.      0.
CQUAD4   26190   6       26732   26733   26736   26735   0.      0.
CQUAD4   26191   6       26043   25011   26134   26044   0.      0.
CQUAD4   26192   6       26341   26042   26043   26344   0.      0.
CQUAD4   26193   6       26485   26552   26553   26486   0.      0.
CQUAD4   26194   6       26624   25005   26916   26625   0.      0.
CQUAD4   26195   6       26337   26338   26341   26340   0.      0.
CQUAD4   26196   6       26333   26334   26337   26336   0.      0.
CQUAD4   26197   6       26227   26330   26333   26228   0.      0.
CQUAD4   26198   6       26553   26227   26228   26554   0.      0.
CQUAD4   26199   6       26486   26553   26554   26487   0.      0.
CQUAD4   26200   6       26624   26743   26746   26625   0.      0.
CQUAD4   26201   6       26625   26916   26918   26626   0.      0.
CQUAD4   26202   6       26045   26136   26138   26046   0.      0.
CQUAD4   26203   6       26343   26344   26347   26346   0.      0.
CQUAD4   26204   6       26228   26333   26336   27001   0.      0.
CQUAD4   26205   6       26554   26228   27001   26555   0.      0.
CQUAD4   26206   6       26738   26739   26742   26741   0.      0.
CQUAD4   26207   6       26347   26044   26045   26350   0.      0.
CQUAD4   26208   6       26339   26340   26343   26342   0.      0.
CQUAD4   26209   6       26046   26138   26140   26047   0.      0.
CQUAD4   26210   6       26741   26742   26745   26744   0.      0.
CQUAD4   26211   6       26743   26744   26747   26746   0.      0.
CQUAD4   26212   6       26138   26139   26141   26140   0.      0.
CQUAD4   26213   6       26350   26045   26046   26353   0.      0.
CQUAD4   26214   6       26555   27001   26229   26556   0.      0.
CQUAD4   26215   6       26488   26555   26556   26489   0.      0.
CQUAD4   26216   6       26346   26347   26350   26349   0.      0.
CQUAD4   26217   6       26627   26920   26922   26628   0.      0.
CQUAD4   26218   6       26920   26921   26923   26922   0.      0.
CQUAD4   26219   6       26047   26140   26142   26048   0.      0.
CQUAD4   26220   6       26353   26046   26047   26356   0.      0.
CQUAD4   26221   6       26342   26343   26346   26345   0.      0.
CQUAD4   26222   6       26229   26339   26342   26230   0.      0.
CQUAD4   26223   6       26556   26229   26230   26557   0.      0.
CQUAD4   26224   6       26744   26745   26748   26747   0.      0.
CQUAD4   26225   6       26349   26350   26353   26352   0.      0.
CQUAD4   26226   6       26627   26752   26755   26628   0.      0.
CQUAD4   26227   6       26628   26922   26924   26629   0.      0.
CQUAD4   26228   6       26557   26230   26231   26558   0.      0.
CQUAD4   26229   6       26048   26142   26143   26049   0.      0.
CQUAD4   26230   6       26345   26346   26349   26348   0.      0.
CQUAD4   26231   6       26230   26342   26345   26231   0.      0.
CQUAD4   26232   6       26747   26748   26751   26750   0.      0.
CQUAD4   26233   6       26490   26557   26558   26491   0.      0.
CQUAD4   26234   6       26924   26925   26927   26926   0.      0.
CQUAD4   26235   6       26752   26753   26756   26755   0.      0.
CQUAD4   26236   6       26355   26356   26359   26358   0.      0.
CQUAD4   26237   6       26558   26231   26232   26559   0.      0.
CQUAD4   26238   6       26049   26143   26145   26050   0.      0.
CQUAD4   26239   6       26359   26048   26049   26362   0.      0.
CQUAD4   26240   6       26351   26352   26355   26354   0.      0.
CQUAD4   26241   6       26232   26348   26351   26233   0.      0.
CQUAD4   26242   6       26630   26926   26928   26631   0.      0.
CQUAD4   26243   6       26559   26232   26233   26560   0.      0.
CQUAD4   26244   6       26050   26145   26147   26051   0.      0.
CQUAD4   26245   6       26362   26049   26050   26365   0.      0.
CQUAD4   26246   6       26751   26492   26493   26754   0.      0.
CQUAD4   26247   6       26233   26351   26354   26234   0.      0.
CQUAD4   26248   6       26492   26559   26560   26493   0.      0.
CQUAD4   26249   6       26630   26761   26764   26631   0.      0.
CQUAD4   26250   6       26358   26359   26362   26361   0.      0.
CQUAD4   26251   6       26354   26355   26358   26357   0.      0.
CQUAD4   26252   6       26493   26560   26561   26494   0.      0.
CQUAD4   26253   6       26051   26147   26148   26052   0.      0.
CQUAD4   26254   6       26560   26233   26234   26561   0.      0.
CQUAD4   26255   6       26632   26930   26932   26633   0.      0.
CQUAD4   26256   6       26234   26354   26357   26235   0.      0.
CQUAD4   26257   6       26631   26764   26767   26632   0.      0.
CQUAD4   26258   6       26148   26149   26151   26150   0.      0.
CQUAD4   26259   6       26364   26365   26368   26367   0.      0.
CQUAD4   26260   6       26052   26148   26150   26053   0.      0.
CQUAD4   26261   6       26368   26051   26052   26371   0.      0.
CQUAD4   26262   6       26360   26361   26364   26363   0.      0.
CQUAD4   26263   6       26561   26234   26235   26562   0.      0.
CQUAD4   26264   6       26150   26151   26153   26152   0.      0.
CQUAD4   26265   6       26562   26235   26236   26563   0.      0.
CQUAD4   26266   6       26053   26150   26152   26054   0.      0.
CQUAD4   26267   6       26371   26052   26053   26374   0.      0.
CQUAD4   26268   6       26495   26562   26563   26496   0.      0.
CQUAD4   26269   6       26634   26934   26936   26635   0.      0.
CQUAD4   26270   6       26367   26368   26371   26370   0.      0.
CQUAD4   26271   6       26152   26153   26155   26154   0.      0.
CQUAD4   26272   6       26363   26364   26367   26366   0.      0.
CQUAD4   26273   6       26236   26360   26363   26237   0.      0.
CQUAD4   26274   6       26563   26236   26237   26564   0.      0.
CQUAD4   26275   6       26496   26563   26564   26497   0.      0.
CQUAD4   26276   6       26374   26053   26054   26377   0.      0.
CQUAD4   26277   6       26936   26937   26939   26938   0.      0.
CQUAD4   26278   6       26370   26371   26374   26373   0.      0.
CQUAD4   26279   6       26366   26367   26370   26369   0.      0.
CQUAD4   26280   6       26237   26363   26366   26238   0.      0.
CQUAD4   26281   6       26055   26154   26156   26056   0.      0.
CQUAD4   26282   6       26564   26237   26238   26565   0.      0.
CQUAD4   26283   6       26156   26157   26159   26158   0.      0.
CQUAD4   26284   6       26056   26156   26158   26057   0.      0.
CQUAD4   26285   6       26376   26377   26380   26379   0.      0.
CQUAD4   26286   6       26773   26774   26777   26776   0.      0.
CQUAD4   26287   6       26380   26055   26056   26383   0.      0.
CQUAD4   26288   6       26372   26373   26376   26375   0.      0.
CQUAD4   26289   6       26239   26369   26372   26240   0.      0.
CQUAD4   26290   6       26565   26238   26239   26566   0.      0.
CQUAD4   26291   6       26637   25015   26941   26638   0.      0.
CQUAD4   26292   6       26158   26159   26161   26160   0.      0.
CQUAD4   26293   6       26057   26158   26160   26058   0.      0.
CQUAD4   26294   6       26772   26499   26500   26775   0.      0.
CQUAD4   26295   6       26566   26239   26240   26567   0.      0.
CQUAD4   26296   6       26774   26775   26778   26777   0.      0.
CQUAD4   26297   6       26383   26056   26057   26386   0.      0.
CQUAD4   26298   6       26379   26380   26383   26382   0.      0.
CQUAD4   26299   6       26160   26161   26163   26162   0.      0.
CQUAD4   26300   6       26375   26376   26379   26378   0.      0.
CQUAD4   26301   6       26240   26372   26375   26241   0.      0.
CQUAD4   26302   6       26777   26778   26781   26780   0.      0.
CQUAD4   26303   6       26567   26240   26241   26568   0.      0.
CQUAD4   26304   6       26943   26944   26946   26945   0.      0.
CQUAD4   26305   6       26385   26386   26389   26388   0.      0.
CQUAD4   26306   6       26059   26162   25012   26060   0.      0.
CQUAD4   26307   6       26389   26058   26059   26392   0.      0.
CQUAD4   26308   6       26241   26375   26378   26242   0.      0.
CQUAD4   26309   6       26780   26781   26784   26783   0.      0.
CQUAD4   26310   6       26568   26241   26242   26569   0.      0.
CQUAD4   26311   6       26501   26568   26569   26502   0.      0.
CQUAD4   26312   6       26783   26784   26787   26786   0.      0.
CQUAD4   26313   6       26640   26945   26947   26641   0.      0.
CQUAD4   26314   6       26381   26382   26385   26384   0.      0.
CQUAD4   26315   6       26569   26242   27002   26570   0.      0.
CQUAD4   26316   6       26785   26786   26789   26788   0.      0.
CQUAD4   26317   6       25012   26164   26166   26165   0.      0.
CQUAD4   26318   6       26060   25012   26165   26061   0.      0.
CQUAD4   26319   6       26392   26059   26060   26395   0.      0.
CQUAD4   26320   6       26502   26569   26570   26503   0.      0.
CQUAD4   26321   6       26388   26389   26392   26391   0.      0.
CQUAD4   26322   6       26384   26385   26388   26387   0.      0.
CQUAD4   26323   6       26570   27002   26243   26571   0.      0.
CQUAD4   26324   6       26788   26789   26792   26791   0.      0.
CQUAD4   26325   6       26165   26166   26168   26167   0.      0.
CQUAD4   26326   6       26061   26165   26167   26062   0.      0.
CQUAD4   26327   6       26395   26060   26061   26398   0.      0.
CQUAD4   26328   6       27002   26381   26384   26243   0.      0.
CQUAD4   26329   6       26243   26384   26387   26244   0.      0.
CQUAD4   26330   6       26641   26794   26797   26642   0.      0.
CQUAD4   26331   6       26391   26392   26395   26394   0.      0.
CQUAD4   26332   6       26571   26243   26244   26572   0.      0.
CQUAD4   26333   6       26167   26168   26170   26169   0.      0.
CQUAD4   26334   6       26062   26167   26169   26063   0.      0.
CQUAD4   26335   6       26390   26391   26394   26393   0.      0.
CQUAD4   26336   6       26504   26571   26572   26505   0.      0.
CQUAD4   26337   6       26794   26795   26798   26797   0.      0.
CQUAD4   26338   6       26642   26797   26800   26643   0.      0.
CQUAD4   26339   6       26643   26951   26953   26644   0.      0.
CQUAD4   26340   6       26397   26398   26401   26400   0.      0.
CQUAD4   26341   6       26572   26244   26245   26573   0.      0.
CQUAD4   26342   6       26505   26572   26573   26506   0.      0.
CQUAD4   26343   6       26063   26169   26171   26064   0.      0.
CQUAD4   26344   6       26401   26062   26063   26404   0.      0.
CQUAD4   26345   6       26393   26394   26397   26396   0.      0.
CQUAD4   26346   6       26644   26953   26955   26645   0.      0.
CQUAD4   26347   6       26245   26390   26393   26246   0.      0.
CQUAD4   26348   6       26573   26245   26246   26574   0.      0.
CQUAD4   26349   6       26404   26063   26064   26407   0.      0.
CQUAD4   26350   6       26793   26506   26507   26796   0.      0.
CQUAD4   26351   6       26246   26393   26396   26247   0.      0.
CQUAD4   26352   6       26172   26173   26175   26174   0.      0.
CQUAD4   26353   6       26400   26401   26404   26403   0.      0.
CQUAD4   26354   6       26396   26397   26400   26399   0.      0.
CQUAD4   26355   6       26574   26246   26247   26575   0.      0.
CQUAD4   26356   6       26645   26806   26809   26646   0.      0.
CQUAD4   26357   6       26174   26175   26177   26176   0.      0.
CQUAD4   26358   6       26406   26407   26410   26409   0.      0.
CQUAD4   26359   6       26247   26396   26399   26248   0.      0.
CQUAD4   26360   6       26410   26065   26066   26412   0.      0.
CQUAD4   26361   6       26402   26403   26406   26405   0.      0.
CQUAD4   26362   6       26575   26247   26248   26576   0.      0.
CQUAD4   26363   6       26067   26176   26178   26068   0.      0.
CQUAD4   26364   6       26176   26177   26179   26178   0.      0.
CQUAD4   26365   6       26576   26248   26249   26577   0.      0.
CQUAD4   26366   6       26802   26509   26510   26805   0.      0.
CQUAD4   26367   6       26804   26805   26808   26807   0.      0.
CQUAD4   26368   6       26412   26066   26067   26415   0.      0.
CQUAD4   26369   6       26248   26399   26402   26249   0.      0.
CQUAD4   26370   6       26509   26576   26577   26510   0.      0.
CQUAD4   26371   6       26648   26961   26963   26649   0.      0.
CQUAD4   26372   6       26409   26410   26412   26411   0.      0.
CQUAD4   26373   6       26068   26178   26180   26069   0.      0.
CQUAD4   26374   6       26405   26406   26409   26408   0.      0.
CQUAD4   26375   6       26249   26402   26405   26250   0.      0.
CQUAD4   26376   6       26577   26249   26250   26578   0.      0.
CQUAD4   26377   6       26807   26808   26811   26810   0.      0.
CQUAD4   26378   6       26415   26067   26068   26418   0.      0.
CQUAD4   26379   6       26510   26577   26578   26511   0.      0.
CQUAD4   26380   6       26648   26815   26818   26649   0.      0.
CQUAD4   26381   6       26069   26180   25013   26070   0.      0.
CQUAD4   26382   6       26414   26415   26418   26417   0.      0.
CQUAD4   26383   6       26180   26181   26182   25013   0.      0.
CQUAD4   26384   6       26250   26405   26408   26251   0.      0.
CQUAD4   26385   6       26578   26250   26251   26579   0.      0.
CQUAD4   26386   6       26810   26811   26814   26813   0.      0.
CQUAD4   26387   6       27009   26411   26414   26413   0.      0.
CQUAD4   26388   6       26417   26418   26421   26420   0.      0.
CQUAD4   26389   6       26813   26814   26817   26816   0.      0.
CQUAD4   26390   6       25013   26182   26184   26183   0.      0.
CQUAD4   26391   6       26070   25013   26183   26071   0.      0.
CQUAD4   26392   6       26421   26069   26070   26424   0.      0.
CQUAD4   26393   6       26579   26251   27003   26580   0.      0.
CQUAD4   26394   6       26512   26579   26580   26513   0.      0.
CQUAD4   26395   6       26183   26184   26186   26185   0.      0.
CQUAD4   26396   6       26071   26183   26185   26072   0.      0.
CQUAD4   26397   6       26424   26070   26071   26427   0.      0.
CQUAD4   26398   6       26413   26414   26417   26416   0.      0.
CQUAD4   26399   6       27003   27009   26413   26252   0.      0.
CQUAD4   26400   6       26580   27003   26252   26581   0.      0.
CQUAD4   26401   6       26814   26513   26514   26817   0.      0.
CQUAD4   26402   6       26816   26817   26820   26819   0.      0.
CQUAD4   26403   6       26420   26421   26424   26423   0.      0.
CQUAD4   26404   6       26416   26417   26420   26419   0.      0.
CQUAD4   26405   6       26581   26252   26253   26582   0.      0.
CQUAD4   26406   6       26821   26822   26825   26824   0.      0.
CQUAD4   26407   6       26185   26186   26188   26187   0.      0.
CQUAD4   26408   6       26252   26413   26416   26253   0.      0.
CQUAD4   26409   6       26824   26825   26828   26827   0.      0.
CQUAD4   26410   6       26653   26970   26972   26654   0.      0.
CQUAD4   26411   6       26426   26427   26430   26429   0.      0.
CQUAD4   26412   6       26582   26253   27004   26583   0.      0.
CQUAD4   26413   6       26187   26188   26190   26189   0.      0.
CQUAD4   26414   6       26430   26072   26073   26433   0.      0.
CQUAD4   26415   6       26422   26423   26426   26425   0.      0.
CQUAD4   26416   6       26253   26416   26419   27004   0.      0.
CQUAD4   26417   6       26515   26582   26583   26516   0.      0.
CQUAD4   26418   6       26653   26830   26833   26654   0.      0.
CQUAD4   26419   6       26583   27004   27005   26584   0.      0.
CQUAD4   26420   6       26825   26826   26829   26828   0.      0.
CQUAD4   26421   6       26189   26190   26192   26191   0.      0.
CQUAD4   26422   6       26074   26189   26191   26075   0.      0.
CQUAD4   26423   6       26433   26073   26074   26436   0.      0.
CQUAD4   26424   6       27004   26419   26422   27005   0.      0.
CQUAD4   26425   6       27005   26422   26425   26254   0.      0.
CQUAD4   26426   6       26654   26833   26836   26655   0.      0.
CQUAD4   26427   6       26429   26430   26433   26432   0.      0.
CQUAD4   26428   6       26425   26426   26429   26428   0.      0.
CQUAD4   26429   6       26517   26584   26585   26518   0.      0.
CQUAD4   26430   6       26191   26192   26194   26193   0.      0.
CQUAD4   26431   6       26436   26074   26075   26439   0.      0.
CQUAD4   26432   6       26584   27005   26254   26585   0.      0.
CQUAD4   26433   6       26656   26976   26978   26657   0.      0.
CQUAD4   26434   6       26254   26425   26428   26255   0.      0.
CQUAD4   26435   6       26655   26836   26839   26656   0.      0.
CQUAD4   26436   6       26976   26977   26979   26978   0.      0.
CQUAD4   26437   6       26193   26194   26196   26195   0.      0.
CQUAD4   26438   6       26585   26254   26255   26586   0.      0.
CQUAD4   26439   6       26076   26193   26195   26077   0.      0.
CQUAD4   26440   6       26431   26432   26435   26434   0.      0.
CQUAD4   26441   6       26518   26585   26586   26519   0.      0.
CQUAD4   26442   6       26435   26436   26439   26438   0.      0.
CQUAD4   26443   6       26978   26979   26981   26980   0.      0.
CQUAD4   26444   6       26195   26196   26198   26197   0.      0.
CQUAD4   26445   6       26438   26439   26442   26441   0.      0.
CQUAD4   26446   6       26836   26837   26840   26839   0.      0.
CQUAD4   26447   6       26077   26195   26197   26078   0.      0.
CQUAD4   26448   6       26442   26076   26077   26445   0.      0.
CQUAD4   26449   6       26586   26255   26256   26587   0.      0.
CQUAD4   26450   6       26519   26586   26587   26520   0.      0.
CQUAD4   26451   6       26658   26980   26982   26659   0.      0.
CQUAD4   26452   6       26197   26198   26200   26199   0.      0.
CQUAD4   26453   6       26434   26435   26438   26437   0.      0.
CQUAD4   26454   6       26256   26431   26434   26257   0.      0.
CQUAD4   26455   6       26587   26256   26257   26588   0.      0.
CQUAD4   26456   6       26835   26520   26521   26838   0.      0.
CQUAD4   26457   6       26078   26197   26199   26079   0.      0.
CQUAD4   26458   6       26445   26077   26078   26448   0.      0.
CQUAD4   26459   6       26982   26983   26985   26984   0.      0.
CQUAD4   26460   6       26441   26442   26445   26444   0.      0.
CQUAD4   26461   6       26079   26199   26201   26080   0.      0.
CQUAD4   26462   6       26199   26200   26202   26201   0.      0.
CQUAD4   26463   6       26437   26438   26441   26440   0.      0.
CQUAD4   26464   6       26257   26434   26437   26258   0.      0.
CQUAD4   26465   6       26588   26257   26258   26589   0.      0.
CQUAD4   26466   6       26984   26985   26987   26986   0.      0.
CQUAD4   26467   6       26201   26202   26204   26203   0.      0.
CQUAD4   26468   6       26080   26201   26203   26081   0.      0.
CQUAD4   26469   6       26447   26448   26451   26450   0.      0.
CQUAD4   26470   6       26843   26844   26847   26846   0.      0.
CQUAD4   26471   6       26845   26846   26849   26848   0.      0.
CQUAD4   26472   6       26258   26437   26440   26259   0.      0.
CQUAD4   26473   6       26589   26258   26259   26590   0.      0.
CQUAD4   26474   6       26451   26079   26080   26454   0.      0.
CQUAD4   26475   6       26443   26444   26447   26446   0.      0.
CQUAD4   26476   6       26522   26589   26590   26523   0.      0.
CQUAD4   26477   6       26203   26204   26205   25014   0.      0.
CQUAD4   26478   6       26846   26847   26850   26849   0.      0.
CQUAD4   26479   6       26081   26203   25014   26082   0.      0.
CQUAD4   26480   6       26454   26080   26081   26457   0.      0.
CQUAD4   26481   6       26590   26259   26260   26591   0.      0.
CQUAD4   26482   6       26259   26440   26443   26260   0.      0.
CQUAD4   26483   6       26450   26451   26454   26453   0.      0.
CQUAD4   26484   6       26988   26989   26990   25002   0.      0.
CQUAD4   26485   6       25014   26205   26207   26206   0.      0.
CQUAD4   26486   6       26082   25014   26206   26083   0.      0.
CQUAD4   26487   6       26446   26447   26450   26449   0.      0.
CQUAD4   26488   6       26260   26443   26446   26261   0.      0.
CQUAD4   26489   6       26849   26850   26853   26852   0.      0.
CQUAD4   26490   6       26591   26260   26261   26592   0.      0.
CQUAD4   26491   6       26524   26591   26592   26525   0.      0.
CQUAD4   26492   6       25002   26990   26992   26991   0.      0.
CQUAD4   26493   6       26854   26855   26858   26857   0.      0.
CQUAD4   26494   6       26662   26857   26860   26663   0.      0.
CQUAD4   26495   6       26456   26457   26460   26459   0.      0.
CQUAD4   26496   6       26592   26261   26262   26593   0.      0.
CQUAD4   26497   6       26452   26453   26456   26455   0.      0.
CQUAD4   26498   6       26261   26446   26449   26262   0.      0.
CQUAD4   26499   6       26460   26082   26083   26463   0.      0.
CQUAD4   26500   6       26525   26592   26593   26526   0.      0.
CQUAD4   26501   6       26857   26858   26861   26860   0.      0.
CQUAD4   26502   6       26593   26262   26263   26594   0.      0.
CQUAD4   26503   6       26263   26452   26455   26264   0.      0.
CQUAD4   26504   6       26459   26460   26463   26462   0.      0.
CQUAD4   26505   6       26594   26263   26264   26595   0.      0.
CQUAD4   26506   6       26527   26594   26595   26528   0.      0.
CQUAD4   26507   6       26264   26455   26458   26265   0.      0.
CQUAD4   26508   6       26528   26595   26596   26529   0.      0.
CQUAD4   26509   6       26595   26264   26265   26596   0.      0.
CQUAD4   26510   6       26265   26458   26461   27006   0.      0.
CQUAD4   26511   6       26529   26596   26597   26530   0.      0.
CQUAD4   26512   6       26596   26265   27006   26597   0.      0.
CQUAD4   26513   6       26599   26668   26671   26600   0.      0.
CQUAD4   26514   6       26666   26667   26670   26669   0.      0.
CQUAD4   26515   6       26668   26669   26672   26671   0.      0.
CQUAD4   26516   6       26601   26674   26677   26602   0.      0.
CQUAD4   26517   6       26674   26675   26678   26677   0.      0.
CQUAD4   26518   6       26670   26465   26466   26673   0.      0.
CQUAD4   26519   6       26677   26678   26681   26680   0.      0.
CQUAD4   26520   6       26673   26466   26467   26676   0.      0.
CQUAD4   26521   6       26604   26683   26686   26605   0.      0.
CQUAD4   26522   6       26676   26467   26468   26679   0.      0.
CQUAD4   26523   6       26681   26682   26685   26684   0.      0.
CQUAD4   26524   6       26605   26686   26689   26606   0.      0.
CQUAD4   26525   6       26682   26469   26470   26685   0.      0.
CQUAD4   26526   6       26684   26685   26688   26687   0.      0.
CQUAD4   26527   6       26686   26687   26690   26689   0.      0.
CQUAD4   26528   6       26685   26470   26471   26688   0.      0.
CQUAD4   26529   6       26687   26688   26691   26690   0.      0.
CQUAD4   26530   6       26608   26695   26698   26609   0.      0.
CQUAD4   26531   6       26688   26471   27046   26691   0.      0.
CQUAD4   26532   6       26692   26693   26696   26695   0.      0.
CQUAD4   26533   6       26691   27046   26473   26694   0.      0.
CQUAD4   26534   6       26693   26694   26697   26696   0.      0.
CQUAD4   26535   6       26695   26696   26699   26698   0.      0.
CQUAD4   26536   6       26609   26698   26701   26610   0.      0.
CQUAD4   26537   6       26694   26473   26474   26697   0.      0.
CQUAD4   26538   6       26696   26697   26700   26699   0.      0.
CQUAD4   26539   6       26698   26699   26702   26701   0.      0.
CQUAD4   26540   6       26699   26700   26703   26702   0.      0.
CQUAD4   26541   6       26611   26704   26707   26612   0.      0.
CQUAD4   26542   6       26697   26474   26475   26700   0.      0.
CQUAD4   26543   6       26612   26707   26710   26613   0.      0.
CQUAD4   26544   6       26702   26703   26706   26705   0.      0.
CQUAD4   26545   6       26704   26705   26708   26707   0.      0.
CQUAD4   26546   6       26703   26476   26477   26706   0.      0.
CQUAD4   26547   6       26707   26708   26711   26710   0.      0.
CQUAD4   26548   6       26613   26710   26713   26614   0.      0.
CQUAD4   26549   6       26709   26478   26479   26712   0.      0.
CQUAD4   26550   6       26713   26714   26717   26716   0.      0.
CQUAD4   26551   6       26615   26716   26719   26616   0.      0.
CQUAD4   26552   6       26616   26719   26722   26617   0.      0.
CQUAD4   26553   6       26712   26479   26480   26715   0.      0.
CQUAD4   26554   6       26714   26715   26718   26717   0.      0.
CQUAD4   26555   6       26715   26480   26481   26718   0.      0.
CQUAD4   26556   6       26717   26718   26721   26720   0.      0.
CQUAD4   26557   6       26718   26481   26482   26721   0.      0.
CQUAD4   26558   6       26720   26721   26724   26723   0.      0.
CQUAD4   26559   6       26721   26482   26483   26724   0.      0.
CQUAD4   26560   6       26723   26724   26727   26726   0.      0.
CQUAD4   26561   6       26728   26729   26732   26731   0.      0.
CQUAD4   26562   6       26724   26483   26484   26727   0.      0.
CQUAD4   26563   6       26726   26727   26730   26729   0.      0.
CQUAD4   26564   6       26621   26734   26737   26622   0.      0.
CQUAD4   26565   6       26622   26737   26740   26623   0.      0.
CQUAD4   26566   6       26733   26486   26487   26736   0.      0.
CQUAD4   26567   6       26623   26740   26743   26624   0.      0.
CQUAD4   26568   6       26740   26741   26744   26743   0.      0.
CQUAD4   26569   6       26736   26487   26488   26739   0.      0.
CQUAD4   26570   6       26625   26746   26749   26626   0.      0.
CQUAD4   26571   6       26739   26488   26489   26742   0.      0.
CQUAD4   26572   6       26742   26489   26490   26745   0.      0.
CQUAD4   26573   6       26746   26747   26750   26749   0.      0.
CQUAD4   26574   6       26745   26490   26491   26748   0.      0.
CQUAD4   26575   6       26749   26750   26753   26752   0.      0.
CQUAD4   26576   6       26748   26491   26492   26751   0.      0.
CQUAD4   26577   6       26750   26751   26754   26753   0.      0.
CQUAD4   26578   6       26628   26755   26758   26629   0.      0.
CQUAD4   26579   6       26629   26758   26761   26630   0.      0.
CQUAD4   26580   6       26753   26754   26757   26756   0.      0.
CQUAD4   26581   6       26756   26757   26760   26759   0.      0.
CQUAD4   26582   6       26758   26759   26762   26761   0.      0.
CQUAD4   26583   6       26757   26494   26495   26760   0.      0.
CQUAD4   26584   6       26759   26760   26763   26762   0.      0.
CQUAD4   26585   6       26761   26762   26765   26764   0.      0.
CQUAD4   26586   6       26760   26495   26496   26763   0.      0.
CQUAD4   26587   6       26762   26763   26766   26765   0.      0.
CQUAD4   26588   6       26633   26770   26773   26634   0.      0.
CQUAD4   26589   6       26763   26496   26497   26766   0.      0.
CQUAD4   26590   6       26765   26766   26769   26768   0.      0.
CQUAD4   26591   6       26766   26497   26498   26769   0.      0.
CQUAD4   26592   6       26768   26769   26772   26771   0.      0.
CQUAD4   26593   6       26770   26771   26774   26773   0.      0.
CQUAD4   26594   6       26769   26498   26499   26772   0.      0.
CQUAD4   26595   6       26771   26772   26775   26774   0.      0.
CQUAD4   26596   6       26635   26776   26779   26636   0.      0.
CQUAD4   26597   6       26776   26777   26780   26779   0.      0.
CQUAD4   26598   6       26636   26779   26782   26637   0.      0.
CQUAD4   26599   6       26775   26500   26501   26778   0.      0.
CQUAD4   26600   6       26782   26783   26786   26785   0.      0.
CQUAD4   26601   6       26778   26501   26502   26781   0.      0.
CQUAD4   26602   6       26639   26788   26791   26640   0.      0.
CQUAD4   26603   6       26781   26502   26503   26784   0.      0.
CQUAD4   26604   6       26784   26503   26504   26787   0.      0.
CQUAD4   26605   6       26786   26787   26790   26789   0.      0.
CQUAD4   26606   6       26640   26791   26794   26641   0.      0.
CQUAD4   26607   6       26789   26790   26793   26792   0.      0.
CQUAD4   26608   6       26791   26792   26795   26794   0.      0.
CQUAD4   26609   6       26790   26505   26506   26793   0.      0.
CQUAD4   26610   6       26792   26793   26796   26795   0.      0.
CQUAD4   26611   6       26795   26796   26799   26798   0.      0.
CQUAD4   26612   6       26796   26507   26508   26799   0.      0.
CQUAD4   26613   6       26798   26799   26802   26801   0.      0.
CQUAD4   26614   6       26800   26801   26804   26803   0.      0.
CQUAD4   26615   6       26644   26803   26806   26645   0.      0.
CQUAD4   26616   6       26799   26508   26509   26802   0.      0.
CQUAD4   26617   6       26801   26802   26805   26804   0.      0.
CQUAD4   26618   6       26803   26804   26807   26806   0.      0.
CQUAD4   26619   6       26806   26807   26810   26809   0.      0.
CQUAD4   26620   6       26805   26510   26511   26808   0.      0.
CQUAD4   26621   6       26808   26511   26512   26811   0.      0.
CQUAD4   26622   6       26812   26813   26816   26815   0.      0.
CQUAD4   26623   6       26811   26512   26513   26814   0.      0.
CQUAD4   26624   6       26649   26818   26821   26650   0.      0.
CQUAD4   26625   6       26818   26819   26822   26821   0.      0.
CQUAD4   26626   6       26651   26824   26827   26652   0.      0.
CQUAD4   26627   6       26817   26514   26515   26820   0.      0.
CQUAD4   26628   6       26819   26820   26823   26822   0.      0.
CQUAD4   26629   6       26820   26515   26516   26823   0.      0.
CQUAD4   26630   6       26822   26823   26826   26825   0.      0.
CQUAD4   26631   6       26826   26517   26518   26829   0.      0.
CQUAD4   26632   6       26828   26829   26832   26831   0.      0.
CQUAD4   26633   6       26830   26831   26834   26833   0.      0.
CQUAD4   26634   6       26829   26518   26519   26832   0.      0.
CQUAD4   26635   6       26831   26832   26835   26834   0.      0.
CQUAD4   26636   6       26656   26839   26842   26657   0.      0.
CQUAD4   26637   6       26832   26519   26520   26835   0.      0.
CQUAD4   26638   6       26834   26835   26838   26837   0.      0.
CQUAD4   26639   6       26837   26838   26841   26840   0.      0.
CQUAD4   26640   6       26839   26840   26843   26842   0.      0.
CQUAD4   26641   6       26838   26521   26522   26841   0.      0.
CQUAD4   26642   6       26842   26843   26846   26845   0.      0.
CQUAD4   26643   6       26658   26845   26848   26659   0.      0.
CQUAD4   26644   6       26659   26848   26851   26660   0.      0.
CQUAD4   26645   6       26841   26522   26523   26844   0.      0.
CQUAD4   26646   6       26848   26849   26852   26851   0.      0.
CQUAD4   26647   6       26660   26851   26854   26661   0.      0.
CQUAD4   26648   6       26844   26523   26524   26847   0.      0.
CQUAD4   26649   6       26661   26854   26857   26662   0.      0.
CQUAD4   26650   6       26847   26524   26525   26850   0.      0.
CQUAD4   26651   6       26851   26852   26855   26854   0.      0.
CQUAD4   26652   6       26852   26853   26856   26855   0.      0.
CQUAD4   26653   6       26853   26526   26527   26856   0.      0.
CQUAD4   26654   6       26855   26856   26859   26858   0.      0.
CQUAD4   26655   6       26663   26860   26863   26664   0.      0.
CQUAD4   26656   6       26856   26527   26528   26859   0.      0.
CQUAD4   26657   6       26858   26859   26862   26861   0.      0.
CQUAD4   26658   6       26859   26528   26529   26862   0.      0.
CQUAD4   26659   6       26862   26529   26530   26865   0.      0.
CQUAD4   26660   6       25003   26867   26993   26866   0.      0.
CQUAD4   26661   6       26599   25003   26868   26600   0.      0.
CQUAD4   26662   6       26019   26087   26089   26020   0.      0.
CQUAD4   26663   6       26868   26869   26871   26870   0.      0.
CQUAD4   26664   6       26870   26871   26873   26872   0.      0.
CQUAD4   26665   6       26667   26464   26465   26670   0.      0.
CQUAD4   26666   6       26601   26870   26872   26602   0.      0.
CQUAD4   26667   6       26602   26872   26874   26603   0.      0.
CQUAD4   26668   6       26603   26874   26876   26604   0.      0.
CQUAD4   26669   6       26466   26533   26534   26467   0.      0.
CQUAD4   26670   6       26097   26098   26100   26099   0.      0.
CQUAD4   26671   6       26605   26878   26880   26606   0.      0.
CQUAD4   26672   6       26878   26879   26881   26880   0.      0.
CQUAD4   26673   6       26468   26535   26536   26469   0.      0.
CQUAD4   26674   6       26606   26880   26882   26607   0.      0.
CQUAD4   26675   6       26880   26881   26883   26882   0.      0.
CQUAD4   26676   6       26882   26883   26885   26884   0.      0.
CQUAD4   26677   6       26469   26536   26537   26470   0.      0.
CQUAD4   26678   6       26608   26884   26886   26609   0.      0.
CQUAD4   26679   6       26884   26885   26887   26886   0.      0.
CQUAD4   26680   6       26609   26886   25004   26610   0.      0.
CQUAD4   26681   6       27046   26539   26540   26473   0.      0.
CQUAD4   26682   6       26612   26891   26893   26613   0.      0.
CQUAD4   26683   6       26891   26892   26894   26893   0.      0.
CQUAD4   26684   6       26613   26893   26895   26614   0.      0.
CQUAD4   26685   6       26475   26542   26543   26476   0.      0.
CQUAD4   26686   6       26476   26543   26544   26477   0.      0.
CQUAD4   26687   6       26615   26897   26899   26616   0.      0.
CQUAD4   26688   6       26897   26898   26900   26899   0.      0.
CQUAD4   26689   6       26616   26899   26901   26617   0.      0.
CQUAD4   26690   6       26479   26546   26547   26480   0.      0.
CQUAD4   26691   6       26618   26903   26905   26619   0.      0.
CQUAD4   26692   6       26124   26125   26127   26126   0.      0.
CQUAD4   26693   6       26481   26548   26549   26482   0.      0.
CQUAD4   26694   6       26619   26905   26907   26620   0.      0.
CQUAD4   26695   6       26039   26126   26128   26040   0.      0.
CQUAD4   26696   6       26482   26549   26550   26483   0.      0.
CQUAD4   26697   6       26128   26129   26994   26130   0.      0.
CQUAD4   26698   6       26729   26730   26733   26732   0.      0.
CQUAD4   26699   6       26911   26912   26914   26913   0.      0.
CQUAD4   26700   6       26622   26911   26913   26623   0.      0.
CQUAD4   26701   6       26042   26131   25011   26043   0.      0.
CQUAD4   26702   6       26623   26913   25005   26624   0.      0.
CQUAD4   26703   6       26134   26135   26137   26136   0.      0.
CQUAD4   26704   6       26487   26554   26555   26488   0.      0.
CQUAD4   26705   6       26626   26918   26920   26627   0.      0.
CQUAD4   26706   6       26918   26919   26921   26920   0.      0.
CQUAD4   26707   6       26489   26556   26557   26490   0.      0.
CQUAD4   26708   6       26140   26141   26995   26142   0.      0.
CQUAD4   26709   6       26142   26995   26144   26143   0.      0.
CQUAD4   26710   6       26629   26924   26926   26630   0.      0.
CQUAD4   26711   6       26491   26558   26559   26492   0.      0.
CQUAD4   26712   6       26926   26927   26929   26928   0.      0.
CQUAD4   26713   6       26145   26146   26996   26147   0.      0.
CQUAD4   26714   6       26147   26996   26149   26148   0.      0.
CQUAD4   26715   6       26930   26931   26933   26932   0.      0.
CQUAD4   26716   6       26494   26561   26562   26495   0.      0.
CQUAD4   26717   6       26633   26932   26934   26634   0.      0.
CQUAD4   26718   6       26932   26933   26935   26934   0.      0.
CQUAD4   26719   6       26497   26564   26565   26498   0.      0.
CQUAD4   26720   6       26635   26936   26938   26636   0.      0.
CQUAD4   26721   6       26938   26939   26940   25015   0.      0.
CQUAD4   26722   6       26498   26565   26566   26499   0.      0.
CQUAD4   26723   6       26499   26566   26567   26500   0.      0.
CQUAD4   26724   6       26500   26567   26568   26501   0.      0.
CQUAD4   26725   6       26638   26941   26943   26639   0.      0.
CQUAD4   26726   6       26058   26160   26162   26059   0.      0.
CQUAD4   26727   6       26641   26947   26949   26642   0.      0.
CQUAD4   26728   6       26503   26570   26571   26504   0.      0.
CQUAD4   26729   6       26787   26504   26505   26790   0.      0.
CQUAD4   26730   6       26642   26949   26951   26643   0.      0.
CQUAD4   26731   6       26949   26950   26952   26951   0.      0.
CQUAD4   26732   6       26951   26952   26954   26953   0.      0.
CQUAD4   26733   6       26169   26170   26997   26171   0.      0.
CQUAD4   26734   6       26506   26573   26574   26507   0.      0.
CQUAD4   26735   6       26171   26997   26173   26172   0.      0.
CQUAD4   26736   6       26645   26955   26957   26646   0.      0.
CQUAD4   26737   6       26955   26956   26958   26957   0.      0.
CQUAD4   26738   6       26507   26574   26575   26508   0.      0.
CQUAD4   26739   6       26065   26172   26174   26066   0.      0.
CQUAD4   26740   6       26508   26575   26576   26509   0.      0.
CQUAD4   26741   6       26957   26958   26960   26959   0.      0.
CQUAD4   26742   6       26963   26964   26966   26965   0.      0.
CQUAD4   26743   6       26649   26963   26965   26650   0.      0.
CQUAD4   26744   6       26513   26580   26581   26514   0.      0.
CQUAD4   26745   6       26514   26581   26582   26515   0.      0.
CQUAD4   26746   6       26968   26969   26971   26970   0.      0.
CQUAD4   26747   6       26072   26185   26187   26073   0.      0.
CQUAD4   26748   6       26970   26971   26973   26972   0.      0.
CQUAD4   26749   6       26823   26516   26517   26826   0.      0.
CQUAD4   26750   6       26516   26583   26584   26517   0.      0.
CQUAD4   26751   6       26655   26974   26976   26656   0.      0.
CQUAD4   26752   6       26974   26975   26977   26976   0.      0.
CQUAD4   26753   6       26075   26191   26193   26076   0.      0.
CQUAD4   26754   6       26520   26587   26588   26521   0.      0.
CQUAD4   26755   6       26659   26982   26984   26660   0.      0.
CQUAD4   26756   6       26521   26588   26589   26522   0.      0.
CQUAD4   26757   6       26523   26590   26591   26524   0.      0.
CQUAD4   26758   6       26661   26986   26988   26662   0.      0.
CQUAD4   26759   6       26986   26987   26989   26988   0.      0.
CQUAD4   26760   6       26662   26988   25002   26663   0.      0.
CQUAD4   26761   6       26850   26525   26526   26853   0.      0.
CQUAD4   26762   6       26663   25002   26991   26664   0.      0.
CQUAD4   26763   6       26526   26593   26594   26527   0.      0.
CQUAD4   26764   6       26270   26271   26274   26273   0.      0.
CQUAD4   26765   6       26598   26665   26668   26599   0.      0.
CQUAD4   26766   6       26266   26267   26270   26269   0.      0.
CQUAD4   26767   6       26274   26019   26020   26277   0.      0.
CQUAD4   26768   6       26671   26672   26675   26674   0.      0.
CQUAD4   26769   6       26095   26096   26098   26097   0.      0.
CQUAD4   26770   6       26279   26280   26283   26282   0.      0.
CQUAD4   26771   6       26602   26677   26680   26603   0.      0.
CQUAD4   26772   6       26275   26276   26279   26278   0.      0.
CQUAD4   26773   6       26286   26023   26024   26289   0.      0.
CQUAD4   26774   6       26099   26100   26102   26101   0.      0.
CQUAD4   26775   6       26998   26275   26278   26211   0.      0.
CQUAD4   26776   6       26680   26681   26684   26683   0.      0.
CQUAD4   26777   6       26291   26292   26295   26294   0.      0.
CQUAD4   26778   6       26606   26689   26692   26607   0.      0.
CQUAD4   26779   6       26295   26026   26027   26298   0.      0.
CQUAD4   26780   6       26287   26288   26291   26290   0.      0.
CQUAD4   26781   6       26607   26692   26695   26608   0.      0.
CQUAD4   26782   6       26300   26301   26304   26303   0.      0.
CQUAD4   26783   6       26030   26108   26110   26031   0.      0.
CQUAD4   26784   6       26296   26297   26300   26299   0.      0.
CQUAD4   26785   6       26307   26030   26031   26310   0.      0.
CQUAD4   26786   6       26217   26296   26299   26999   0.      0.
CQUAD4   26787   6       27007   26312   26315   26314   0.      0.
CQUAD4   26788   6       26308   26309   27007   26311   0.      0.
CQUAD4   26789   6       26614   26713   26716   26615   0.      0.
CQUAD4   26790   6       26315   26033   26034   26318   0.      0.
CQUAD4   26791   6       27008   26320   26323   26322   0.      0.
CQUAD4   26792   6       26716   26717   26720   26719   0.      0.
CQUAD4   26793   6       26316   26317   27008   26319   0.      0.
CQUAD4   26794   6       26617   26722   26725   26618   0.      0.
CQUAD4   26795   6       26323   26036   26037   26326   0.      0.
CQUAD4   26796   6       26618   26725   26728   26619   0.      0.
CQUAD4   26797   6       26126   26127   26129   26128   0.      0.
CQUAD4   26798   6       26903   26904   26906   26905   0.      0.
CQUAD4   26799   6       26222   26316   26319   26223   0.      0.
CQUAD4   26800   6       26725   26726   26729   26728   0.      0.
CQUAD4   26801   6       26620   26907   26909   26621   0.      0.
CQUAD4   26802   6       26331   26332   26335   26334   0.      0.
CQUAD4   26803   6       26327   26328   26331   26330   0.      0.
CQUAD4   26804   6       26335   26040   26041   26338   0.      0.
CQUAD4   26805   6       26131   26132   26133   25011   0.      0.
CQUAD4   26806   6       26909   26910   26912   26911   0.      0.
CQUAD4   26807   6       26734   26735   26738   26737   0.      0.
CQUAD4   26808   6       26340   26341   26344   26343   0.      0.
CQUAD4   26809   6       26044   26134   26136   26045   0.      0.
CQUAD4   26810   6       26344   26043   26044   26347   0.      0.
CQUAD4   26811   6       26737   26738   26741   26740   0.      0.
CQUAD4   26812   6       26336   26337   26340   26339   0.      0.
CQUAD4   26813   6       26136   26137   26139   26138   0.      0.
CQUAD4   26814   6       25005   26915   26917   26916   0.      0.
CQUAD4   26815   6       26916   26917   26919   26918   0.      0.
CQUAD4   26816   6       27001   26336   26339   26229   0.      0.
CQUAD4   26817   6       26626   26749   26752   26627   0.      0.
CQUAD4   26818   6       26352   26353   26356   26355   0.      0.
CQUAD4   26819   6       26356   26047   26048   26359   0.      0.
CQUAD4   26820   6       26348   26349   26352   26351   0.      0.
CQUAD4   26821   6       26143   26144   26146   26145   0.      0.
CQUAD4   26822   6       26231   26345   26348   26232   0.      0.
CQUAD4   26823   6       26755   26756   26759   26758   0.      0.
CQUAD4   26824   6       26361   26362   26365   26364   0.      0.
CQUAD4   26825   6       26357   26358   26361   26360   0.      0.
CQUAD4   26826   6       26365   26050   26051   26368   0.      0.
CQUAD4   26827   6       26631   26928   26930   26632   0.      0.
CQUAD4   26828   6       26928   26929   26931   26930   0.      0.
CQUAD4   26829   6       26632   26767   26770   26633   0.      0.
CQUAD4   26830   6       26235   26357   26360   26236   0.      0.
CQUAD4   26831   6       26764   26765   26768   26767   0.      0.
CQUAD4   26832   6       26054   26152   26154   26055   0.      0.
CQUAD4   26833   6       26767   26768   26771   26770   0.      0.
CQUAD4   26834   6       26373   26374   26377   26376   0.      0.
CQUAD4   26835   6       26934   26935   26937   26936   0.      0.
CQUAD4   26836   6       26377   26054   26055   26380   0.      0.
CQUAD4   26837   6       26369   26370   26373   26372   0.      0.
CQUAD4   26838   6       26238   26366   26369   26239   0.      0.
CQUAD4   26839   6       26637   26782   26785   26638   0.      0.
CQUAD4   26840   6       26382   26383   26386   26385   0.      0.
CQUAD4   26841   6       25015   26940   26942   26941   0.      0.
CQUAD4   26842   6       26386   26057   26058   26389   0.      0.
CQUAD4   26843   6       26779   26780   26783   26782   0.      0.
CQUAD4   26844   6       26638   26785   26788   26639   0.      0.
CQUAD4   26845   6       26941   26942   26944   26943   0.      0.
CQUAD4   26846   6       26378   26379   26382   26381   0.      0.
CQUAD4   26847   6       26162   26163   26164   25012   0.      0.
CQUAD4   26848   6       26242   26378   26381   27002   0.      0.
CQUAD4   26849   6       26945   26946   26948   26947   0.      0.
CQUAD4   26850   6       26387   26388   26391   26390   0.      0.
CQUAD4   26851   6       26394   26395   26398   26397   0.      0.
CQUAD4   26852   6       26947   26948   26950   26949   0.      0.
CQUAD4   26853   6       26244   26387   26390   26245   0.      0.
CQUAD4   26854   6       26398   26061   26062   26401   0.      0.
CQUAD4   26855   6       26643   26800   26803   26644   0.      0.
CQUAD4   26856   6       26064   26171   26172   26065   0.      0.
CQUAD4   26857   6       26797   26798   26801   26800   0.      0.
CQUAD4   26858   6       26403   26404   26407   26406   0.      0.
CQUAD4   26859   6       26953   26954   26956   26955   0.      0.
CQUAD4   26860   6       26407   26064   26065   26410   0.      0.
CQUAD4   26861   6       26399   26400   26403   26402   0.      0.
CQUAD4   26862   6       26066   26174   26176   26067   0.      0.
CQUAD4   26863   6       26646   26809   26812   26647   0.      0.
CQUAD4   26864   6       26646   26957   26959   26647   0.      0.
CQUAD4   26865   6       26647   26812   26815   26648   0.      0.
CQUAD4   26866   6       26647   26959   26961   26648   0.      0.
CQUAD4   26867   6       26411   26412   26415   26414   0.      0.
CQUAD4   26868   6       26178   26179   26181   26180   0.      0.
CQUAD4   26869   6       26959   26960   26962   26961   0.      0.
CQUAD4   26870   6       26809   26810   26813   26812   0.      0.
CQUAD4   26871   6       26961   26962   26964   26963   0.      0.
CQUAD4   26872   6       26408   26409   26411   27009   0.      0.
CQUAD4   26873   6       26418   26068   26069   26421   0.      0.
CQUAD4   26874   6       26251   26408   27009   27003   0.      0.
CQUAD4   26875   6       26815   26816   26819   26818   0.      0.
CQUAD4   26876   6       26650   26965   33051   26651   0.      0.
CQUAD4   26877   6       26650   26821   26824   26651   0.      0.
CQUAD4   26878   6       26965   26966   26967   33051   0.      0.
CQUAD4   26879   6       33051   26967   26969   26968   0.      0.
CQUAD4   26880   6       26423   26424   26427   26426   0.      0.
CQUAD4   26881   6       26652   26827   26830   26653   0.      0.
CQUAD4   26882   6       26419   26420   26423   26422   0.      0.
CQUAD4   26883   6       26652   26968   26970   26653   0.      0.
CQUAD4   26884   6       26427   26071   26072   26430   0.      0.
CQUAD4   26885   6       26827   26828   26831   26830   0.      0.
CQUAD4   26886   6       26654   26972   26974   26655   0.      0.
CQUAD4   26887   6       26432   26433   26436   26435   0.      0.
CQUAD4   26888   6       26972   26973   26975   26974   0.      0.
CQUAD4   26889   6       26428   26429   26432   26431   0.      0.
CQUAD4   26890   6       26833   26834   26837   26836   0.      0.
CQUAD4   26891   6       26439   26075   26076   26442   0.      0.
CQUAD4   26892   6       26255   26428   26431   26256   0.      0.
CQUAD4   26893   6       26657   26842   26845   26658   0.      0.
CQUAD4   26894   6       26657   26978   26980   26658   0.      0.
CQUAD4   26895   6       26980   26981   26983   26982   0.      0.
CQUAD4   26896   6       26444   26445   26448   26447   0.      0.
CQUAD4   26897   6       26440   26441   26444   26443   0.      0.
CQUAD4   26898   6       26448   26078   26079   26451   0.      0.
CQUAD4   26899   6       26660   26984   26986   26661   0.      0.
CQUAD4   26900   6       26453   26454   26457   26456   0.      0.
CQUAD4   26901   6       26449   26450   26453   26452   0.      0.
CQUAD4   26902   6       26457   26081   26082   26460   0.      0.
CQUAD4   26903   6       26262   26449   26452   26263   0.      0.
CQUAD4   26904   6       26455   26456   26459   26458   0.      0.
CQUAD4   26905   6       26458   26459   26462   26461   0.      0.
CQUAD4   26906   6       26860   26861   26864   26863   0.      0.
CQUAD4   26907   6       26861   26862   26865   26864   0.      0.
CQUAD4   26908   6       26844   26843   26840   26841   0.      0.
CQUAD4   26909   6       26493   26494   26757   26754   0.      0.
CQUAD4   26910   6       26485   26730   26727   26484   0.      0.
CQUAD4   26911   6       26736   26739   26738   26735   0.      0.
CQUAD4   26912   6       26478   26709   26706   26477   0.      0.
CQUAD4   26913   6       26108   26030   26029   25010   0.      0.
CQUAD4   26914   6       26924   26925   26923   26922   0.      0.
CQUAD4   26915   6       26637   25015   26938   26636   0.      0.
CQUAD4   26916   6       26640   26945   26943   26639   0.      0.
CQUAD4   26917   6       26652   26968   33051   26651   0.      0.
CQUAD4   26918   6       26189   26074   26073   26187   0.      0.
CQUAD4   26919   6       26579   26512   26511   26578   0.      0.
CQUAD4   26920   6       26157   26156   26154   26155   0.      0.
CQUAD4   26921   6       26776   26635   26634   26773   0.      0.
CQUAD4   26922   6       26876   26877   26879   26878   0.      0.
CQUAD4   26923   6       26279   26280   26277   26276   0.      0.
CTRIA3   26924   6       25216   25021   25217   0.      0.
$ Elements and Element Properties for region : pshell.7
PSHELL   7       1      6.35     1               1
$ Pset: "pshell.7" will be imported as: "pshell.7"
CQUAD4   16276   7       16309   16352   16351   16228   0.      0.
CQUAD4   16277   7       16310   16353   16352   16309   0.      0.
CQUAD4   16278   7       16308   16354   16353   16310   0.      0.
CQUAD4   16279   7       16312   16355   16354   16308   0.      0.
CQUAD4   16280   7       16313   16356   16355   16312   0.      0.
CQUAD4   16281   7       16311   16408   16356   16313   0.      0.
CQUAD4   16282   7       16314   16357   16408   16311   0.      0.
CQUAD4   16283   7       16315   16358   16357   16314   0.      0.
CQUAD4   16284   7       16316   16359   16358   16315   0.      0.
CQUAD4   16285   7       16317   16360   16359   16316   0.      0.
CQUAD4   16332   7       16352   16404   16403   16351   0.      0.
CQUAD4   16333   7       16353   16405   16404   16352   0.      0.
CQUAD4   16334   7       16354   16406   16405   16353   0.      0.
CQUAD4   16335   7       16355   16407   16406   16354   0.      0.
CQUAD4   16336   7       16356   16546   16407   16355   0.      0.
CQUAD4   16337   7       16359   16410   16409   16358   0.      0.
CQUAD4   16338   7       16360   16411   16410   16359   0.      0.
CQUAD4   16342   7       16409   16414   16357   16358   0.      0.
CQUAD4   16343   7       16409   16416   16415   16414   0.      0.
CQUAD4   16344   7       16410   16417   16416   16409   0.      0.
CQUAD4   16345   7       16411   16418   16417   16410   0.      0.
CQUAD4   16394   7       16404   16464   16463   16403   0.      0.
CQUAD4   16395   7       16405   16465   16464   16404   0.      0.
CQUAD4   16396   7       16406   16466   16465   16405   0.      0.
CQUAD4   16397   7       16407   16467   16466   16406   0.      0.
CQUAD4   16398   7       16546   16468   16467   16407   0.      0.
CQUAD4   16399   7       16414   16468   16408   16357   0.      0.
CQUAD4   16408   7       16464   16478   16477   16463   0.      0.
CQUAD4   16409   7       16465   16479   16478   16464   0.      0.
CQUAD4   16410   7       16466   16480   16479   16465   0.      0.
CQUAD4   16411   7       16417   16482   16481   16416   0.      0.
CQUAD4   16424   7       16479   16496   16495   16478   0.      0.
CQUAD4   16425   7       16480   16481   16496   16479   0.      0.
CQUAD4   16434   7       16481   16506   16505   16496   0.      0.
CQUAD4   16449   7       16415   16467   16468   16414   0.      0.
CQUAD4   16450   7       16415   16480   16466   16467   0.      0.
CQUAD4   16489   7       16481   16480   16415   16416   0.      0.
CQUAD4   16491   7       16408   16468   16546   16356   0.      0.
CTRIA3   16496   7       16495   16505   16496   0.      0.
CTRIA3   16498   7       16477   16495   16478   0.      0.
CTRIA3   16500   7       16506   16482   16481   0.      0.
CTRIA3   16509   7       16482   16417   16418   0.      0.
$ Elements and Element Properties for region : pshell.8
PSHELL   8       1      2.       1               1
$ Pset: "pshell.8" will be imported as: "pshell.8"
CQUAD4   16320   8       16339   16391   16390   16338   0.      0.
CQUAD4   16321   8       16340   16392   16391   16339   0.      0.
CQUAD4   16322   8       16341   16393   16392   16340   0.      0.
CQUAD4   16323   8       16342   16394   16393   16341   0.      0.
CQUAD4   16324   8       16343   16395   16394   16342   0.      0.
CQUAD4   16325   8       16344   16396   16395   16343   0.      0.
CQUAD4   16326   8       16345   16397   16396   16344   0.      0.
CQUAD4   16351   8       16380   16423   16422   16379   0.      0.
CQUAD4   16352   8       16381   16424   16423   16380   0.      0.
CQUAD4   16353   8       16382   16425   16424   16381   0.      0.
CQUAD4   16354   8       16383   16426   16425   16382   0.      0.
CQUAD4   16355   8       16384   16427   16426   16383   0.      0.
CQUAD4   16356   8       16385   16428   16427   16384   0.      0.
CQUAD4   16357   8       16386   16429   16428   16385   0.      0.
CQUAD4   16358   8       16387   16430   16429   16386   0.      0.
CQUAD4   16359   8       16388   16431   16430   16387   0.      0.
CQUAD4   16360   8       16389   16432   16431   16388   0.      0.
CQUAD4   16361   8       16390   16391   16432   16389   0.      0.
CQUAD4   16364   8       16423   16435   16434   16422   0.      0.
CQUAD4   16365   8       16424   16436   16435   16423   0.      0.
CQUAD4   16366   8       16425   16437   16436   16424   0.      0.
CQUAD4   16367   8       16426   16438   16437   16425   0.      0.
CQUAD4   16368   8       16427   16439   16438   16426   0.      0.
CQUAD4   16369   8       16428   16440   16439   16427   0.      0.
CQUAD4   16370   8       16429   16441   16440   16428   0.      0.
CQUAD4   16371   8       16430   16442   16441   16429   0.      0.
CQUAD4   16372   8       16431   16443   16442   16430   0.      0.
CQUAD4   16373   8       16391   16392   16393   16432   0.      0.
CQUAD4   16376   8       16435   16446   16445   16434   0.      0.
CQUAD4   16377   8       16436   16447   16446   16435   0.      0.
CQUAD4   16378   8       16437   16448   16447   16436   0.      0.
CQUAD4   16379   8       16438   16449   16448   16437   0.      0.
CQUAD4   16380   8       16439   16450   16449   16438   0.      0.
CQUAD4   16381   8       16440   16451   16450   16439   0.      0.
CQUAD4   16382   8       16441   16452   16451   16440   0.      0.
CQUAD4   16383   8       16442   16453   16452   16441   0.      0.
CQUAD4   16384   8       16443   16454   16453   16442   0.      0.
CQUAD4   16385   8       16395   16455   16454   16394   0.      0.
CQUAD4   16386   8       16396   16456   16455   16395   0.      0.
CQUAD4   16387   8       16397   16457   16456   16396   0.      0.
CQUAD4   16388   8       16398   16458   16457   16397   0.      0.
CQUAD4   16400   8       16455   16469   16453   16454   0.      0.
CQUAD4   16401   8       16456   16470   16469   16455   0.      0.
CQUAD4   16402   8       16457   16471   16470   16456   0.      0.
CQUAD4   16403   8       16458   16472   16471   16457   0.      0.
CQUAD4   16415   8       16469   16486   16452   16453   0.      0.
CQUAD4   16416   8       16470   16487   16486   16469   0.      0.
CQUAD4   16417   8       16471   16488   16487   16470   0.      0.
CQUAD4   16418   8       16472   16489   16488   16471   0.      0.
CQUAD4   16419   8       16473   16490   16489   16472   0.      0.
CQUAD4   16426   8       16487   16451   16452   16486   0.      0.
CQUAD4   16427   8       16488   16497   16451   16487   0.      0.
CQUAD4   16428   8       16489   16498   16497   16488   0.      0.
CQUAD4   16429   8       16490   16499   16498   16489   0.      0.
CQUAD4   16438   8       16498   16510   16518   16497   0.      0.
CQUAD4   16447   8       16443   16393   16394   16454   0.      0.
CQUAD4   16448   8       16443   16431   16432   16393   0.      0.
CQUAD4   16451   8       16510   16520   16519   16518   0.      0.
CQUAD4   16452   8       16510   16522   16521   16520   0.      0.
CQUAD4   16453   8       16499   16522   16510   16498   0.      0.
CQUAD4   16454   8       16519   16449   16450   16518   0.      0.
CQUAD4   16455   8       16520   16448   16449   16519   0.      0.
CQUAD4   16456   8       16521   16447   16448   16520   0.      0.
CQUAD4   16457   8       16521   16523   16446   16447   0.      0.
CQUAD4   16458   8       16522   16524   16523   16521   0.      0.
CQUAD4   16459   8       16500   16524   16522   16499   0.      0.
CQUAD4   16460   8       16523   16525   16445   16446   0.      0.
CQUAD4   16461   8       16524   16526   16525   16523   0.      0.
CQUAD4   16462   8       16527   16528   16526   16524   0.      0.
CQUAD4   16466   8       16528   16533   16532   16526   0.      0.
CQUAD4   16490   8       16518   16450   16451   16497   0.      0.
CTRIA3   16493   8       16532   16526   16525   0.      0.
CTRIA3   16501   8       16524   16527   16500   0.      0.
CTRIA3   16503   8       16490   16499   16500   0.      0.
CTRIA3   16505   8       16458   16472   16473   0.      0.
CTRIA3   16507   8       16345   16397   16398   0.      0.
$ Elements and Element Properties for region : pshell.9
PSHELL   9       1      3.5      1               1
$ Pset: "pshell.9" will be imported as: "pshell.9"
CQUAD4   16130   9       16177   16013   16179   16178   0.      0.
CQUAD4   16132   9       16178   16179   16181   16180   0.      0.
CQUAD4   16134   9       16180   16181   16183   16182   0.      0.
CQUAD4   16136   9       16182   16183   16185   16184   0.      0.
CQUAD4   16138   9       16184   16185   16187   16186   0.      0.
CQUAD4   16140   9       16186   16187   16189   16188   0.      0.
CQUAD4   16142   9       16188   16189   16191   16190   0.      0.
CQUAD4   16144   9       16190   16191   16193   16192   0.      0.
CQUAD4   16146   9       16192   16193   16195   16194   0.      0.
CQUAD4   16148   9       16194   16195   16197   16196   0.      0.
CQUAD4   16150   9       16196   16197   16199   16198   0.      0.
CQUAD4   16152   9       16198   16199   16201   16200   0.      0.
CQUAD4   16154   9       16200   16201   16203   16202   0.      0.
CQUAD4   16156   9       16202   16203   16205   16204   0.      0.
CQUAD4   16158   9       16204   16205   16207   16206   0.      0.
CQUAD4   16160   9       16206   16207   16209   16208   0.      0.
CQUAD4   16244   9       16013   16321   16008   16009   0.      0.
CQUAD4   16245   9       16179   16322   16321   16013   0.      0.
CQUAD4   16246   9       16181   16323   16322   16179   0.      0.
CQUAD4   16247   9       16183   16324   16323   16181   0.      0.
CQUAD4   16248   9       16185   16325   16324   16183   0.      0.
CQUAD4   16249   9       16187   16326   16325   16185   0.      0.
CQUAD4   16250   9       16189   16327   16326   16187   0.      0.
CQUAD4   16251   9       16191   16328   16327   16189   0.      0.
CQUAD4   16252   9       16193   16329   16328   16191   0.      0.
CQUAD4   16253   9       16195   16330   16329   16193   0.      0.
CQUAD4   16254   9       16197   16331   16330   16195   0.      0.
CQUAD4   16255   9       16199   16332   16331   16197   0.      0.
CQUAD4   16256   9       16201   16333   16332   16199   0.      0.
CQUAD4   16257   9       16203   16334   16333   16201   0.      0.
CQUAD4   16258   9       16205   16335   16334   16203   0.      0.
CQUAD4   16259   9       16207   16336   16335   16205   0.      0.
CQUAD4   16260   9       16227   16336   16207   16209   0.      0.
CQUAD4   16261   9       16242   16337   16336   16227   0.      0.
CQUAD4   16262   9       16241   16338   16337   16242   0.      0.
CQUAD4   16263   9       16240   16339   16338   16241   0.      0.
CQUAD4   16264   9       16239   16340   16339   16240   0.      0.
CQUAD4   16265   9       16238   16341   16340   16239   0.      0.
CQUAD4   16266   9       16237   16342   16341   16238   0.      0.
CQUAD4   16267   9       16236   16343   16342   16237   0.      0.
CQUAD4   16268   9       16235   16344   16343   16236   0.      0.
CQUAD4   16269   9       16234   16345   16344   16235   0.      0.
CQUAD4   16270   9       16233   16346   16345   16234   0.      0.
CQUAD4   16271   9       16232   16347   16346   16233   0.      0.
CQUAD4   16272   9       16231   16348   16347   16232   0.      0.
CQUAD4   16273   9       16230   16349   16348   16231   0.      0.
CQUAD4   16274   9       16229   16350   16349   16230   0.      0.
CQUAD4   16275   9       16228   16351   16350   16229   0.      0.
CQUAD4   16286   9       16318   16361   16360   16317   0.      0.
CQUAD4   16287   9       16319   16362   16361   16318   0.      0.
CQUAD4   16288   9       16320   16363   16362   16319   0.      0.
CQUAD4   16289   9       16224   16363   16320   16225   0.      0.
CQUAD4   16290   9       16223   16364   16363   16224   0.      0.
CQUAD4   16291   9       16222   16365   16364   16223   0.      0.
CQUAD4   16292   9       16221   16366   16365   16222   0.      0.
CQUAD4   16293   9       16220   16367   16366   16221   0.      0.
CQUAD4   16294   9       16219   16368   16367   16220   0.      0.
CQUAD4   16295   9       16218   16369   16368   16219   0.      0.
CQUAD4   16296   9       16217   16370   16369   16218   0.      0.
CQUAD4   16297   9       16216   16371   16370   16217   0.      0.
CQUAD4   16298   9       16215   16372   16371   16216   0.      0.
CQUAD4   16299   9       16214   16373   16372   16215   0.      0.
CQUAD4   16300   9       16213   16374   16373   16214   0.      0.
CQUAD4   16301   9       16212   16375   16374   16213   0.      0.
CQUAD4   16302   9       16211   16376   16375   16212   0.      0.
CQUAD4   16303   9       16210   16377   16376   16211   0.      0.
CQUAD4   16304   9       16321   16377   16210   16008   0.      0.
CQUAD4   16305   9       16322   16378   16377   16321   0.      0.
CQUAD4   16306   9       16323   16379   16378   16322   0.      0.
CQUAD4   16307   9       16324   16380   16379   16323   0.      0.
CQUAD4   16308   9       16325   16381   16380   16324   0.      0.
CQUAD4   16309   9       16326   16382   16381   16325   0.      0.
CQUAD4   16310   9       16327   16383   16382   16326   0.      0.
CQUAD4   16311   9       16328   16384   16383   16327   0.      0.
CQUAD4   16312   9       16329   16385   16384   16328   0.      0.
CQUAD4   16313   9       16330   16386   16385   16329   0.      0.
CQUAD4   16314   9       16331   16387   16386   16330   0.      0.
CQUAD4   16315   9       16332   16388   16387   16331   0.      0.
CQUAD4   16316   9       16333   16389   16388   16332   0.      0.
CQUAD4   16317   9       16334   16390   16389   16333   0.      0.
CQUAD4   16318   9       16336   16337   16338   16335   0.      0.
CQUAD4   16319   9       16338   16390   16334   16335   0.      0.
CQUAD4   16327   9       16347   16399   16398   16346   0.      0.
CQUAD4   16328   9       16348   16400   16399   16347   0.      0.
CQUAD4   16329   9       16349   16401   16400   16348   0.      0.
CQUAD4   16330   9       16350   16402   16401   16349   0.      0.
CQUAD4   16331   9       16351   16403   16402   16350   0.      0.
CQUAD4   16339   9       16361   16412   16411   16360   0.      0.
CQUAD4   16340   9       16362   16413   16412   16361   0.      0.
CQUAD4   16341   9       16364   16413   16362   16363   0.      0.
CQUAD4   16346   9       16412   16419   16418   16411   0.      0.
CQUAD4   16347   9       16413   16420   16419   16412   0.      0.
CQUAD4   16348   9       16365   16420   16413   16364   0.      0.
CQUAD4   16349   9       16378   16421   16376   16377   0.      0.
CQUAD4   16350   9       16379   16422   16421   16378   0.      0.
CQUAD4   16362   9       16421   16433   16375   16376   0.      0.
CQUAD4   16363   9       16422   16434   16433   16421   0.      0.
CQUAD4   16374   9       16433   16444   16374   16375   0.      0.
CQUAD4   16375   9       16434   16445   16444   16433   0.      0.
CQUAD4   16389   9       16399   16459   16458   16398   0.      0.
CQUAD4   16390   9       16400   16460   16459   16399   0.      0.
CQUAD4   16391   9       16401   16461   16460   16400   0.      0.
CQUAD4   16392   9       16402   16462   16461   16401   0.      0.
CQUAD4   16393   9       16403   16463   16462   16402   0.      0.
CQUAD4   16404   9       16460   16474   16473   16459   0.      0.
CQUAD4   16405   9       16461   16475   16474   16460   0.      0.
CQUAD4   16406   9       16462   16476   16475   16461   0.      0.
CQUAD4   16407   9       16463   16477   16476   16462   0.      0.
CQUAD4   16412   9       16419   16484   16483   16418   0.      0.
CQUAD4   16413   9       16420   16485   16484   16419   0.      0.
CQUAD4   16414   9       16366   16485   16420   16365   0.      0.
CQUAD4   16420   9       16474   16491   16490   16473   0.      0.
CQUAD4   16421   9       16475   16492   16491   16474   0.      0.
CQUAD4   16422   9       16476   16493   16492   16475   0.      0.
CQUAD4   16423   9       16477   16494   16493   16476   0.      0.
CQUAD4   16430   9       16492   16501   16500   16491   0.      0.
CQUAD4   16431   9       16493   16502   16501   16492   0.      0.
CQUAD4   16432   9       16494   16503   16502   16493   0.      0.
CQUAD4   16433   9       16495   16504   16503   16494   0.      0.
CQUAD4   16435   9       16483   16508   16507   16482   0.      0.
CQUAD4   16436   9       16484   16509   16508   16483   0.      0.
CQUAD4   16437   9       16366   16509   16484   16485   0.      0.
CQUAD4   16439   9       16367   16511   16509   16366   0.      0.
CQUAD4   16440   9       16368   16512   16511   16367   0.      0.
CQUAD4   16441   9       16369   16513   16512   16368   0.      0.
CQUAD4   16442   9       16370   16514   16513   16369   0.      0.
CQUAD4   16443   9       16371   16515   16514   16370   0.      0.
CQUAD4   16444   9       16372   16516   16515   16371   0.      0.
CQUAD4   16445   9       16373   16517   16516   16372   0.      0.
CQUAD4   16446   9       16444   16517   16373   16374   0.      0.
CQUAD4   16463   9       16527   16530   16529   16528   0.      0.
CQUAD4   16464   9       16502   16530   16527   16501   0.      0.
CQUAD4   16465   9       16525   16517   16444   16445   0.      0.
CQUAD4   16467   9       16529   16534   16533   16528   0.      0.
CQUAD4   16468   9       16529   16536   16535   16534   0.      0.
CQUAD4   16469   9       16502   16536   16529   16530   0.      0.
CQUAD4   16470   9       16503   16537   16536   16502   0.      0.
CQUAD4   16471   9       16504   16538   16537   16503   0.      0.
CQUAD4   16472   9       16505   16539   16538   16504   0.      0.
CQUAD4   16473   9       16507   16539   16505   16506   0.      0.
CQUAD4   16474   9       16511   16540   16508   16509   0.      0.
CQUAD4   16475   9       16512   16545   16540   16511   0.      0.
CQUAD4   16476   9       16513   16541   16545   16512   0.      0.
CQUAD4   16477   9       16514   16542   16541   16513   0.      0.
CQUAD4   16478   9       16515   16543   16542   16514   0.      0.
CQUAD4   16479   9       16531   16543   16515   16516   0.      0.
CQUAD4   16480   9       16532   16531   16516   16517   0.      0.
CQUAD4   16481   9       16537   16544   16535   16536   0.      0.
CQUAD4   16482   9       16538   16545   16544   16537   0.      0.
CQUAD4   16483   9       16507   16508   16540   16539   0.      0.
CQUAD4   16484   9       16539   16540   16545   16538   0.      0.
CQUAD4   16485   9       16541   16535   16544   16545   0.      0.
CQUAD4   16486   9       16542   16534   16535   16541   0.      0.
CQUAD4   16487   9       16543   16533   16534   16542   0.      0.
CQUAD4   16488   9       16543   16531   16532   16533   0.      0.
CTRIA3   16492   9       16525   16517   16532   0.      0.
CTRIA3   16494   9       16506   16507   16482   0.      0.
CTRIA3   16495   9       16495   16504   16505   0.      0.
CTRIA3   16497   9       16495   16494   16477   0.      0.
CTRIA3   16499   9       16482   16483   16418   0.      0.
CTRIA3   16502   9       16500   16527   16501   0.      0.
CTRIA3   16504   9       16491   16490   16500   0.      0.
CTRIA3   16506   9       16459   16458   16473   0.      0.
CTRIA3   16508   9       16345   16346   16398   0.      0.
CTRIA3   16510   9       16013   16177   16009   0.      0.
$ Elements and Element Properties for region : pshell.10
PSHELL   10      1      3.       1               1
$ Pset: "pshell.10" will be imported as: "pshell.10"
CQUAD4   16000   10      16006   16004   16008   16009   0.      0.
CQUAD4   16001   10      16014   16015   16020   16019   0.      0.
CQUAD4   16002   10      16015   16016   16021   16020   0.      0.
CQUAD4   16003   10      16016   16017   16022   16021   0.      0.
CQUAD4   16004   10      16017   16018   16023   16022   0.      0.
CQUAD4   16005   10      16019   16020   16025   16024   0.      0.
CQUAD4   16006   10      16020   16021   16551   16025   0.      0.
CQUAD4   16007   10      16021   16022   16026   16551   0.      0.
CQUAD4   16008   10      16022   16023   16027   16026   0.      0.
CQUAD4   16009   10      16024   16025   16029   16028   0.      0.
CQUAD4   16010   10      16025   16551   16030   16029   0.      0.
CQUAD4   16011   10      16551   16026   16031   16030   0.      0.
CQUAD4   16012   10      16026   16027   16032   16031   0.      0.
CQUAD4   16013   10      16028   16029   16034   16033   0.      0.
CQUAD4   16014   10      16029   16030   16035   16034   0.      0.
CQUAD4   16015   10      16030   16031   16036   16035   0.      0.
CQUAD4   16016   10      16031   16032   16037   16036   0.      0.
CQUAD4   16017   10      16033   16034   16039   16038   0.      0.
CQUAD4   16018   10      16034   16035   16040   16039   0.      0.
CQUAD4   16019   10      16035   16036   16041   16040   0.      0.
CQUAD4   16020   10      16036   16037   16042   16041   0.      0.
CQUAD4   16021   10      16038   16039   16044   16043   0.      0.
CQUAD4   16022   10      16039   16040   16550   16044   0.      0.
CQUAD4   16023   10      16040   16041   16045   16550   0.      0.
CQUAD4   16024   10      16041   16042   16046   16045   0.      0.
CQUAD4   16025   10      16043   16044   16048   16047   0.      0.
CQUAD4   16026   10      16044   16550   16049   16048   0.      0.
CQUAD4   16027   10      16550   16045   16050   16049   0.      0.
CQUAD4   16028   10      16045   16046   16051   16050   0.      0.
CQUAD4   16029   10      16047   16048   16053   16052   0.      0.
CQUAD4   16030   10      16048   16049   16054   16053   0.      0.
CQUAD4   16031   10      16049   16050   16055   16054   0.      0.
CQUAD4   16032   10      16050   16051   16056   16055   0.      0.
CQUAD4   16033   10      16052   16053   16058   16057   0.      0.
CQUAD4   16034   10      16053   16054   16059   16058   0.      0.
CQUAD4   16035   10      16054   16055   16060   16059   0.      0.
CQUAD4   16036   10      16055   16056   16061   16060   0.      0.
CQUAD4   16037   10      16057   16058   16063   16062   0.      0.
CQUAD4   16038   10      16058   16059   16549   16063   0.      0.
CQUAD4   16039   10      16059   16060   16064   16549   0.      0.
CQUAD4   16040   10      16060   16061   16065   16064   0.      0.
CQUAD4   16041   10      16062   16063   16067   16066   0.      0.
CQUAD4   16042   10      16063   16549   16068   16067   0.      0.
CQUAD4   16043   10      16549   16064   16069   16068   0.      0.
CQUAD4   16044   10      16064   16065   16070   16069   0.      0.
CQUAD4   16045   10      16066   16067   16072   16071   0.      0.
CQUAD4   16046   10      16067   16068   16073   16072   0.      0.
CQUAD4   16047   10      16068   16069   16074   16073   0.      0.
CQUAD4   16048   10      16069   16070   16075   16074   0.      0.
CQUAD4   16049   10      16071   16072   16077   16076   0.      0.
CQUAD4   16050   10      16072   16073   16078   16077   0.      0.
CQUAD4   16051   10      16073   16074   16079   16078   0.      0.
CQUAD4   16052   10      16074   16075   16080   16079   0.      0.
CQUAD4   16053   10      16076   16077   16082   16081   0.      0.
CQUAD4   16054   10      16077   16078   16083   16082   0.      0.
CQUAD4   16055   10      16078   16079   16084   16083   0.      0.
CQUAD4   16056   10      16079   16080   16085   16084   0.      0.
CQUAD4   16057   10      16081   16082   16087   16086   0.      0.
CQUAD4   16058   10      16082   16083   16088   16087   0.      0.
CQUAD4   16059   10      16083   16084   16089   16088   0.      0.
CQUAD4   16060   10      16084   16085   16090   16089   0.      0.
CQUAD4   16061   10      16086   16087   16091   16010   0.      0.
CQUAD4   16062   10      16087   16088   16011   16091   0.      0.
CQUAD4   16063   10      16088   16089   16092   16011   0.      0.
CQUAD4   16064   10      16089   16090   16093   16092   0.      0.
CQUAD4   16065   10      16004   16094   16098   16097   0.      0.
CQUAD4   16066   10      16094   16005   16099   16098   0.      0.
CQUAD4   16067   10      16005   16095   16100   16099   0.      0.
CQUAD4   16068   10      16095   16096   16101   16100   0.      0.
CQUAD4   16069   10      16097   16098   16103   16102   0.      0.
CQUAD4   16070   10      16098   16099   16104   16103   0.      0.
CQUAD4   16071   10      16099   16100   16105   16104   0.      0.
CQUAD4   16072   10      16100   16101   16106   16105   0.      0.
CQUAD4   16073   10      16102   16103   16108   16107   0.      0.
CQUAD4   16074   10      16103   16104   16109   16108   0.      0.
CQUAD4   16075   10      16104   16105   16110   16109   0.      0.
CQUAD4   16076   10      16105   16106   16111   16110   0.      0.
CQUAD4   16077   10      16107   16108   16113   16112   0.      0.
CQUAD4   16078   10      16108   16109   16114   16113   0.      0.
CQUAD4   16079   10      16109   16110   16115   16114   0.      0.
CQUAD4   16080   10      16110   16111   16116   16115   0.      0.
CQUAD4   16081   10      16112   16113   16118   16117   0.      0.
CQUAD4   16082   10      16113   16114   16119   16118   0.      0.
CQUAD4   16083   10      16114   16115   16120   16119   0.      0.
CQUAD4   16084   10      16115   16116   16121   16120   0.      0.
CQUAD4   16085   10      16117   16118   16123   16122   0.      0.
CQUAD4   16086   10      16118   16119   16124   16123   0.      0.
CQUAD4   16087   10      16119   16120   16125   16124   0.      0.
CQUAD4   16088   10      16120   16121   16126   16125   0.      0.
CQUAD4   16089   10      16122   16123   16128   16127   0.      0.
CQUAD4   16090   10      16123   16124   16129   16128   0.      0.
CQUAD4   16091   10      16124   16125   16130   16129   0.      0.
CQUAD4   16092   10      16125   16126   16131   16130   0.      0.
CQUAD4   16093   10      16127   16128   16133   16132   0.      0.
CQUAD4   16094   10      16128   16129   16134   16133   0.      0.
CQUAD4   16095   10      16129   16130   16135   16134   0.      0.
CQUAD4   16096   10      16130   16131   16136   16135   0.      0.
CQUAD4   16097   10      16132   16133   16138   16137   0.      0.
CQUAD4   16098   10      16133   16134   16139   16138   0.      0.
CQUAD4   16099   10      16134   16135   16140   16139   0.      0.
CQUAD4   16100   10      16135   16136   16141   16140   0.      0.
CQUAD4   16101   10      16137   16138   16143   16142   0.      0.
CQUAD4   16102   10      16138   16139   16144   16143   0.      0.
CQUAD4   16103   10      16139   16140   16145   16144   0.      0.
CQUAD4   16104   10      16140   16141   16146   16145   0.      0.
CQUAD4   16105   10      16142   16143   16148   16147   0.      0.
CQUAD4   16106   10      16143   16144   16149   16148   0.      0.
CQUAD4   16107   10      16144   16145   16150   16149   0.      0.
CQUAD4   16108   10      16145   16146   16151   16150   0.      0.
CQUAD4   16109   10      16147   16148   16153   16152   0.      0.
CQUAD4   16110   10      16148   16149   16154   16153   0.      0.
CQUAD4   16111   10      16149   16150   16155   16154   0.      0.
CQUAD4   16112   10      16150   16151   16156   16155   0.      0.
CQUAD4   16113   10      16152   16153   16158   16157   0.      0.
CQUAD4   16114   10      16153   16154   16159   16158   0.      0.
CQUAD4   16115   10      16154   16155   16160   16159   0.      0.
CQUAD4   16116   10      16155   16156   16161   16160   0.      0.
CQUAD4   16117   10      16157   16158   16163   16162   0.      0.
CQUAD4   16118   10      16158   16159   16164   16163   0.      0.
CQUAD4   16119   10      16159   16160   16165   16164   0.      0.
CQUAD4   16120   10      16160   16161   16166   16165   0.      0.
CQUAD4   16121   10      16162   16163   16168   16167   0.      0.
CQUAD4   16122   10      16163   16164   16169   16168   0.      0.
CQUAD4   16123   10      16164   16165   16170   16169   0.      0.
CQUAD4   16124   10      16165   16166   16171   16170   0.      0.
CQUAD4   16125   10      16167   16168   16173   16172   0.      0.
CQUAD4   16126   10      16168   16169   16174   16173   0.      0.
CQUAD4   16127   10      16169   16170   16175   16174   0.      0.
CQUAD4   16128   10      16170   16171   16176   16175   0.      0.
CQUAD4   16129   10      16010   16177   16178   16086   0.      0.
CQUAD4   16131   10      16086   16178   16180   16081   0.      0.
CQUAD4   16133   10      16081   16180   16182   16076   0.      0.
CQUAD4   16135   10      16076   16182   16184   16071   0.      0.
CQUAD4   16137   10      16071   16184   16186   16066   0.      0.
CQUAD4   16139   10      16066   16186   16188   16062   0.      0.
CQUAD4   16141   10      16062   16188   16190   16057   0.      0.
CQUAD4   16143   10      16057   16190   16192   16052   0.      0.
CQUAD4   16145   10      16052   16192   16194   16047   0.      0.
CQUAD4   16147   10      16047   16194   16196   16043   0.      0.
CQUAD4   16149   10      16043   16196   16198   16038   0.      0.
CQUAD4   16151   10      16038   16198   16200   16033   0.      0.
CQUAD4   16153   10      16033   16200   16202   16028   0.      0.
CQUAD4   16155   10      16028   16202   16204   16024   0.      0.
CQUAD4   16157   10      16024   16204   16206   16019   0.      0.
CQUAD4   16159   10      16019   16206   16208   16014   0.      0.
CQUAD4   16161   10      16004   16008   16210   16097   0.      0.
CQUAD4   16162   10      16097   16210   16211   16102   0.      0.
CQUAD4   16163   10      16102   16211   16212   16107   0.      0.
CQUAD4   16164   10      16107   16212   16213   16112   0.      0.
CQUAD4   16165   10      16112   16213   16214   16117   0.      0.
CQUAD4   16166   10      16117   16214   16215   16122   0.      0.
CQUAD4   16167   10      16122   16215   16216   16127   0.      0.
CQUAD4   16168   10      16127   16216   16217   16132   0.      0.
CQUAD4   16169   10      16132   16217   16218   16137   0.      0.
CQUAD4   16170   10      16137   16218   16219   16142   0.      0.
CQUAD4   16171   10      16142   16219   16220   16147   0.      0.
CQUAD4   16172   10      16147   16220   16221   16152   0.      0.
CQUAD4   16173   10      16152   16221   16222   16157   0.      0.
CQUAD4   16174   10      16157   16222   16223   16162   0.      0.
CQUAD4   16175   10      16162   16223   16224   16167   0.      0.
CQUAD4   16176   10      16167   16224   16225   16172   0.      0.
CTRIA3   16511   10      16177   16010   16006   0.      0.
CTRIA3   16512   10      16009   16177   16006   0.      0.
CQUAD4   16513   10      16091   16011   16012   16547   0.      0.
CQUAD4   16514   10      16091   16547   16006   16010   0.      0.
CQUAD4   16515   10      16006   16548   16094   16004   0.      0.
CQUAD4   16516   10      16094   16005   16007   16548   0.      0.
$ Elements and Element Properties for region : pshell.11
PSHELL   11      1      2.5      1               1
$ Pset: "pshell.11" will be imported as: "pshell.11"
CQUAD4   16177   11      16229   16252   16226   16228   0.      0.
CQUAD4   16178   11      16230   16263   16252   16229   0.      0.
CQUAD4   16179   11      16232   16264   16275   16231   0.      0.
CQUAD4   16180   11      16233   16265   16264   16232   0.      0.
CQUAD4   16181   11      16234   16266   16265   16233   0.      0.
CQUAD4   16182   11      16235   16267   16266   16234   0.      0.
CQUAD4   16183   11      16236   16268   16267   16235   0.      0.
CQUAD4   16184   11      16237   16269   16268   16236   0.      0.
CQUAD4   16185   11      16238   16270   16269   16237   0.      0.
CQUAD4   16186   11      16239   16271   16270   16238   0.      0.
CQUAD4   16187   11      16240   16272   16271   16239   0.      0.
CQUAD4   16188   11      16241   16273   16272   16240   0.      0.
CQUAD4   16189   11      16242   16274   16273   16241   0.      0.
CQUAD4   16190   11      16244   16274   16242   16227   0.      0.
CQUAD4   16191   11      16264   16277   16276   16275   0.      0.
CQUAD4   16192   11      16264   16279   16278   16277   0.      0.
CQUAD4   16193   11      16265   16280   16279   16264   0.      0.
CQUAD4   16194   11      16266   16281   16280   16265   0.      0.
CQUAD4   16195   11      16267   16295   16281   16266   0.      0.
CQUAD4   16196   11      16268   16294   16295   16267   0.      0.
CQUAD4   16197   11      16269   16301   16294   16268   0.      0.
CQUAD4   16198   11      16270   16300   16301   16269   0.      0.
CQUAD4   16199   11      16271   16282   16300   16270   0.      0.
CQUAD4   16200   11      16272   16283   16282   16271   0.      0.
CQUAD4   16201   11      16273   16284   16283   16272   0.      0.
CQUAD4   16202   11      16274   16285   16284   16273   0.      0.
CQUAD4   16203   11      16245   16285   16274   16244   0.      0.
CQUAD4   16204   11      16249   16286   16247   16243   0.      0.
CQUAD4   16205   11      16250   16287   16286   16249   0.      0.
CQUAD4   16206   11      16248   16288   16287   16250   0.      0.
CQUAD4   16207   11      16251   16289   16288   16248   0.      0.
CQUAD4   16208   11      16253   16290   16289   16251   0.      0.
CQUAD4   16209   11      16254   16291   16290   16253   0.      0.
CQUAD4   16210   11      16255   16292   16291   16254   0.      0.
CQUAD4   16211   11      16256   16293   16292   16255   0.      0.
CQUAD4   16212   11      16257   16294   16293   16256   0.      0.
CQUAD4   16213   11      16258   16295   16294   16257   0.      0.
CQUAD4   16214   11      16275   16263   16230   16231   0.      0.
CQUAD4   16215   11      16275   16276   16262   16263   0.      0.
CQUAD4   16216   11      16259   16281   16295   16258   0.      0.
CQUAD4   16217   11      16260   16280   16281   16259   0.      0.
CQUAD4   16218   11      16278   16279   16280   16260   0.      0.
CQUAD4   16219   11      16261   16277   16278   16260   0.      0.
CQUAD4   16220   11      16276   16277   16261   16262   0.      0.
CQUAD4   16221   11      16246   16296   16285   16245   0.      0.
CQUAD4   16222   11      16286   16296   16246   16247   0.      0.
CQUAD4   16223   11      16287   16297   16296   16286   0.      0.
CQUAD4   16224   11      16288   16302   16297   16287   0.      0.
CQUAD4   16225   11      16289   16298   16302   16288   0.      0.
CQUAD4   16226   11      16290   16299   16298   16289   0.      0.
CQUAD4   16227   11      16291   16300   16299   16290   0.      0.
CQUAD4   16228   11      16292   16301   16300   16291   0.      0.
CQUAD4   16229   11      16282   16298   16299   16300   0.      0.
CQUAD4   16230   11      16283   16302   16298   16282   0.      0.
CQUAD4   16231   11      16285   16296   16297   16284   0.      0.
CQUAD4   16232   11      16297   16302   16283   16284   0.      0.
CQUAD4   16233   11      16301   16292   16293   16294   0.      0.
CQUAD4   16234   11      16209   16304   16244   16227   0.      0.
CQUAD4   16235   11      16208   16305   16304   16209   0.      0.
CQUAD4   16236   11      16015   16305   16208   16014   0.      0.
CQUAD4   16237   11      16303   16306   16017   16018   0.      0.
CQUAD4   16238   11      16247   16306   16303   16243   0.      0.
CQUAD4   16239   11      16246   16307   16306   16247   0.      0.
CQUAD4   16240   11      16244   16304   16305   16245   0.      0.
CQUAD4   16241   11      16305   16307   16246   16245   0.      0.
CQUAD4   16242   11      16017   16306   16307   16016   0.      0.
CQUAD4   16243   11      16016   16307   16305   16015   0.      0.
$ Elements and Element Properties for region : pshell.12
PSHELL   12      1      2.4      1               1
$ Pset: "pshell.12" will be imported as: "pshell.12"
CQUAD4   606     12      8009    8005    8013    8020    0.      0.
CTRIA3   4000    12      4542    4543    4544    0.      0.
CQUAD4   4001    12      4590    8001    4517    4516    0.      0.
CQUAD4   4002    12      8001    8000    4501    4517    0.      0.
CQUAD4   4003    12      4516    4517    4519    4518    0.      0.
CQUAD4   4004    12      4517    4501    4500    4519    0.      0.
CQUAD4   4005    12      4518    4519    4521    4520    0.      0.
CQUAD4   4006    12      4519    4500    4503    4521    0.      0.
CQUAD4   4007    12      4520    4521    4523    4522    0.      0.
CQUAD4   4008    12      4521    4503    4502    4523    0.      0.
CQUAD4   4009    12      4522    4523    4525    4524    0.      0.
CQUAD4   4010    12      4523    4502    4509    4525    0.      0.
CQUAD4   4011    12      4524    4525    4527    4526    0.      0.
CQUAD4   4012    12      4525    4509    4510    4527    0.      0.
CQUAD4   4013    12      4526    4527    4529    4528    0.      0.
CQUAD4   4014    12      4527    4510    4511    4529    0.      0.
CQUAD4   4015    12      4528    4529    4531    4530    0.      0.
CQUAD4   4016    12      4529    4511    4512    4531    0.      0.
CQUAD4   4017    12      4530    4531    4533    4532    0.      0.
CQUAD4   4018    12      4531    4512    4513    4533    0.      0.
CQUAD4   4019    12      4532    4533    4535    4534    0.      0.
CQUAD4   4020    12      4533    4513    4507    4535    0.      0.
CQUAD4   4021    12      4534    4535    4537    4536    0.      0.
CQUAD4   4022    12      4535    4507    4508    4537    0.      0.
CQUAD4   4023    12      4536    4537    4539    4538    0.      0.
CQUAD4   4024    12      4537    4508    4504    4539    0.      0.
CQUAD4   4025    12      4539    4504    4506    4541    0.      0.
CQUAD4   4026    12      4540    4541    4543    4542    0.      0.
CQUAD4   4027    12      4541    4506    4505    4543    0.      0.
CQUAD4   4028    12      4543    4505    4515    4544    0.      0.
CQUAD4   4029    12      4544    4515    4514    4545    0.      0.
CQUAD4   4049    12      4562    4545    4544    4542    0.      0.
CQUAD4   4050    12      4539    4541    4540    4538    0.      0.
CQUAD4   6182    12      8003    8012    6224    6001    0.      0.
CQUAD4   6183    12      8012    8013    6283    6224    0.      0.
CQUAD4   6184    12      6001    6224    6225    6002    0.      0.
CQUAD4   6185    12      6224    6283    6247    6225    0.      0.
CQUAD4   6186    12      6002    6225    6226    6003    0.      0.
CQUAD4   6187    12      6225    6247    6284    6226    0.      0.
CQUAD4   6188    12      6003    6226    6227    6004    0.      0.
CQUAD4   6189    12      6226    6284    6255    6227    0.      0.
CQUAD4   6190    12      6004    6227    6005    6264    0.      0.
CQUAD4   6191    12      6227    6255    6289    6005    0.      0.
CQUAD4   6192    12      6264    6005    6006    6265    0.      0.
CQUAD4   6193    12      6005    6289    6290    6006    0.      0.
CQUAD4   6194    12      6265    6006    6007    6256    0.      0.
CQUAD4   6195    12      6006    6290    6291    6007    0.      0.
CQUAD4   6196    12      6256    6007    6008    6266    0.      0.
CQUAD4   6197    12      6007    6291    6292    6008    0.      0.
CQUAD4   6198    12      6266    6008    6281    6009    0.      0.
CQUAD4   6199    12      6008    6292    6257    6281    0.      0.
CQUAD4   6200    12      6009    6281    6010    6267    0.      0.
CQUAD4   6201    12      6281    6257    6254    6010    0.      0.
CQUAD4   6202    12      6267    6010    6011    6268    0.      0.
CQUAD4   6203    12      6010    6254    6288    6011    0.      0.
CQUAD4   6204    12      6268    6011    6012    6269    0.      0.
CQUAD4   6205    12      6011    6288    6287    6012    0.      0.
CQUAD4   6206    12      6269    6012    6228    6013    0.      0.
CQUAD4   6207    12      6012    6287    6253    6228    0.      0.
CQUAD4   6208    12      6013    6228    6014    6252    0.      0.
CQUAD4   6209    12      6228    6253    6286    6014    0.      0.
CQUAD4   6210    12      6252    6014    6282    6229    0.      0.
CQUAD4   6211    12      6014    6286    6251    6282    0.      0.
CQUAD4   6212    12      6229    6282    6230    6015    0.      0.
CQUAD4   6213    12      6282    6251    6250    6230    0.      0.
CQUAD4   6214    12      6015    6230    6231    6024    0.      0.
CQUAD4   6215    12      6230    6250    6249    6231    0.      0.
CQUAD4   6216    12      6024    6231    6232    6016    0.      0.
CQUAD4   6217    12      6231    6249    6248    6232    0.      0.
CQUAD4   6218    12      6016    6232    6233    6017    0.      0.
CQUAD4   6219    12      6232    6248    6258    6233    0.      0.
CQUAD4   6220    12      6017    6233    6234    6018    0.      0.
CQUAD4   6221    12      6233    6258    6259    6234    0.      0.
CQUAD4   6222    12      6018    6234    6235    6019    0.      0.
CQUAD4   6223    12      6234    6259    6236    6235    0.      0.
CQUAD4   6224    12      6019    6235    6237    6020    0.      0.
CQUAD4   6225    12      6235    6236    6238    6237    0.      0.
CQUAD4   6226    12      6020    6237    6239    6021    0.      0.
CQUAD4   6227    12      6237    6238    6240    6239    0.      0.
CQUAD4   6228    12      6021    6239    6023    6022    0.      0.
CQUAD4   6229    12      6239    6240    6223    6023    0.      0.
CQUAD4   6232    12      6243    6242    6241    6244    0.      0.
CQUAD4   6233    12      6241    6244    6023    6022    0.      0.
CQUAD4   6234    12      6223    6023    6244    6245    0.      0.
CQUAD4   6235    12      6245    6244    6243    6246    0.      0.
CQUAD4   6237    12      8014    8010    6279    8018    0.      0.
CQUAD4   6238    12      8018    6279    8006    8019    0.      0.
CQUAD4   6239    12      8019    8006    8008    8007    0.      0.
CQUAD4   6240    12      8011    8007    6216    8005    0.      0.
CQUAD4   6241    12      8007    8008    8004    6216    0.      0.
CQUAD4   6242    12      8004    6216    8012    8003    0.      0.
CQUAD4   6243    12      6216    8005    8013    8012    0.      0.
CQUAD4   8000    12      8015    8014    8018    8016    0.      0.
CQUAD4   8001    12      8016    8018    8019    8017    0.      0.
CQUAD4   8002    12      8017    8019    8007    8011    0.      0.
CQUAD4   8007    12      8470    8469    8068    8072    0.      0.
CQUAD4   8008    12      8072    8068    8069    8073    0.      0.
CQUAD4   8009    12      8073    8069    8070    8074    0.      0.
CQUAD4   8010    12      8074    8070    8055    8075    0.      0.
CQUAD4   8011    12      8076    8077    8079    8078    0.      0.
CQUAD4   8012    12      8078    8079    8081    8080    0.      0.
CQUAD4   8013    12      8080    8081    8083    8082    0.      0.
CQUAD4   8014    12      8082    8083    8056    8084    0.      0.
CQUAD4   8015    12      8084    8056    8022    8025    0.      0.
CQUAD4   8016    12      8021    8022    8056    8085    0.      0.
CQUAD4   8017    12      8085    8056    8083    8086    0.      0.
CQUAD4   8018    12      8086    8083    8081    8087    0.      0.
CQUAD4   8019    12      8087    8081    8079    8088    0.      0.
CQUAD4   8020    12      8088    8079    8077    8089    0.      0.
CQUAD4   8021    12      8090    8076    8078    8091    0.      0.
CQUAD4   8022    12      8091    8078    8080    8092    0.      0.
CQUAD4   8023    12      8092    8080    8082    8093    0.      0.
CQUAD4   8024    12      8093    8082    8084    8094    0.      0.
CQUAD4   8025    12      8094    8084    8025    8026    0.      0.
CQUAD4   8026    12      8095    8089    8088    8096    0.      0.
CQUAD4   8027    12      8096    8088    8087    8097    0.      0.
CQUAD4   8028    12      8097    8087    8086    8098    0.      0.
CQUAD4   8029    12      8098    8086    8085    16000   0.      0.
CQUAD4   8030    12      16000   8085    8021    8027    0.      0.
CQUAD4   8031    12      8100    8101    8103    8102    0.      0.
CQUAD4   8032    12      8102    8103    8105    8104    0.      0.
CQUAD4   8033    12      8104    8105    8107    8106    0.      0.
CQUAD4   8034    12      8106    8107    16002   16001   0.      0.
CQUAD4   8035    12      16001   16002   8029    8030    0.      0.
CQUAD4   8036    12      8028    8029    16002   16003   0.      0.
CQUAD4   8037    12      16003   16002   8107    8111    0.      0.
CQUAD4   8038    12      8111    8107    8105    8112    0.      0.
CQUAD4   8039    12      8112    8105    8103    8113    0.      0.
CQUAD4   8040    12      8113    8103    8101    8114    0.      0.
CQUAD4   8041    12      8095    8100    8102    8096    0.      0.
CQUAD4   8042    12      8096    8102    8104    8097    0.      0.
CQUAD4   8043    12      8097    8104    8106    8098    0.      0.
CQUAD4   8044    12      8098    8106    16001   16000   0.      0.
CQUAD4   8045    12      16000   16001   8030    8027    0.      0.
CQUAD4   8046    12      8470    8114    8113    8072    0.      0.
CQUAD4   8047    12      8072    8113    8112    8073    0.      0.
CQUAD4   8048    12      8073    8112    8111    8074    0.      0.
CQUAD4   8049    12      8074    8111    16003   8075    0.      0.
CQUAD4   8050    12      8075    16003   8028    8000    0.      0.
CQUAD4   8051    12      8115    8116    8118    8117    0.      0.
CQUAD4   8052    12      8117    8118    8120    8119    0.      0.
CQUAD4   8053    12      8119    8120    8122    8121    0.      0.
CQUAD4   8054    12      8121    8122    8123    8057    0.      0.
CQUAD4   8055    12      8057    8123    8023    8024    0.      0.
CQUAD4   8056    12      8031    8023    8123    8124    0.      0.
CQUAD4   8057    12      8124    8123    8122    8125    0.      0.
CQUAD4   8058    12      8125    8122    8120    8126    0.      0.
CQUAD4   8059    12      8126    8120    8118    8127    0.      0.
CQUAD4   8060    12      8127    8118    8116    8128    0.      0.
CQUAD4   8061    12      8129    8115    8117    8130    0.      0.
CQUAD4   8062    12      8130    8117    8119    8131    0.      0.
CQUAD4   8063    12      8131    8119    8121    8132    0.      0.
CQUAD4   8064    12      8132    8121    8057    8133    0.      0.
CQUAD4   8065    12      8133    8057    8024    8032    0.      0.
CQUAD4   8066    12      8090    8128    8127    8091    0.      0.
CQUAD4   8067    12      8091    8127    8126    8092    0.      0.
CQUAD4   8068    12      8092    8126    8125    8093    0.      0.
CQUAD4   8069    12      8093    8125    8124    8094    0.      0.
CQUAD4   8070    12      8094    8124    8031    8026    0.      0.
CQUAD4   8071    12      8134    8135    8137    8136    0.      0.
CQUAD4   8072    12      8136    8137    8139    8138    0.      0.
CQUAD4   8073    12      8138    8139    8141    8140    0.      0.
CQUAD4   8074    12      8140    8141    8143    8142    0.      0.
CQUAD4   8075    12      8142    8143    8034    8035    0.      0.
CQUAD4   8076    12      8033    8034    8143    8144    0.      0.
CQUAD4   8077    12      8144    8143    8141    8145    0.      0.
CQUAD4   8078    12      8145    8141    8139    8146    0.      0.
CQUAD4   8079    12      8146    8139    8137    8147    0.      0.
CQUAD4   8080    12      8147    8137    8135    8148    0.      0.
CQUAD4   8081    12      8149    8134    8136    8150    0.      0.
CQUAD4   8082    12      8150    8136    8138    8151    0.      0.
CQUAD4   8083    12      8151    8138    8140    8152    0.      0.
CQUAD4   8084    12      8152    8140    8142    8153    0.      0.
CQUAD4   8085    12      8153    8142    8035    8036    0.      0.
CQUAD4   8086    12      8129    8148    8147    8130    0.      0.
CQUAD4   8087    12      8130    8147    8146    8131    0.      0.
CQUAD4   8088    12      8131    8146    8145    8132    0.      0.
CQUAD4   8089    12      8132    8145    8144    8133    0.      0.
CQUAD4   8090    12      8133    8144    8033    8032    0.      0.
CQUAD4   8091    12      8154    8155    8157    8156    0.      0.
CQUAD4   8092    12      8156    8157    8159    8158    0.      0.
CQUAD4   8093    12      8158    8159    8161    8160    0.      0.
CQUAD4   8094    12      8160    8161    8163    8162    0.      0.
CQUAD4   8095    12      8162    8163    8038    8039    0.      0.
CQUAD4   8096    12      8037    8038    8163    8164    0.      0.
CQUAD4   8097    12      8164    8163    8161    8165    0.      0.
CQUAD4   8098    12      8165    8161    8159    8166    0.      0.
CQUAD4   8099    12      8166    8159    8157    8167    0.      0.
CQUAD4   8100    12      8167    8157    8155    8168    0.      0.
CQUAD4   8101    12      8169    8154    8156    8170    0.      0.
CQUAD4   8102    12      8170    8156    8158    8171    0.      0.
CQUAD4   8103    12      8171    8158    8160    8172    0.      0.
CQUAD4   8104    12      8172    8160    8162    8173    0.      0.
CQUAD4   8105    12      8173    8162    8039    8040    0.      0.
CQUAD4   8106    12      8149    8168    8167    8150    0.      0.
CQUAD4   8107    12      8150    8167    8166    8151    0.      0.
CQUAD4   8108    12      8151    8166    8165    8152    0.      0.
CQUAD4   8109    12      8152    8165    8164    8153    0.      0.
CQUAD4   8110    12      8153    8164    8037    8036    0.      0.
CQUAD4   8111    12      8174    8175    8177    8176    0.      0.
CQUAD4   8112    12      8176    8177    8179    8178    0.      0.
CQUAD4   8113    12      8178    8179    8181    8180    0.      0.
CQUAD4   8114    12      8180    8181    8183    8182    0.      0.
CQUAD4   8115    12      8182    8183    8042    8043    0.      0.
CQUAD4   8116    12      8041    8042    8183    8184    0.      0.
CQUAD4   8117    12      8184    8183    8181    8185    0.      0.
CQUAD4   8118    12      8185    8181    8179    8186    0.      0.
CQUAD4   8119    12      8186    8179    8177    8187    0.      0.
CQUAD4   8120    12      8187    8177    8175    8188    0.      0.
CQUAD4   8121    12      8067    8174    8176    8189    0.      0.
CQUAD4   8122    12      8189    8176    8178    8190    0.      0.
CQUAD4   8123    12      8190    8178    8180    8191    0.      0.
CQUAD4   8124    12      8191    8180    8182    8009    0.      0.
CQUAD4   8125    12      8009    8182    8043    8020    0.      0.
CQUAD4   8126    12      8192    8188    8187    8193    0.      0.
CQUAD4   8127    12      8193    8187    8186    8194    0.      0.
CQUAD4   8128    12      8194    8186    8185    8195    0.      0.
CQUAD4   8129    12      8195    8185    8184    8196    0.      0.
CQUAD4   8130    12      8196    8184    8041    8044    0.      0.
CQUAD4   8131    12      8169    8197    8198    8170    0.      0.
CQUAD4   8132    12      8170    8198    8199    8171    0.      0.
CQUAD4   8133    12      8171    8199    8200    8172    0.      0.
CQUAD4   8134    12      8172    8200    8058    8173    0.      0.
CQUAD4   8135    12      8173    8058    8045    8040    0.      0.
CQUAD4   8136    12      8201    8202    8211    8210    0.      0.
CQUAD4   8137    12      8202    8203    8212    8211    0.      0.
CQUAD4   8138    12      8203    8204    8213    8212    0.      0.
CQUAD4   8139    12      8204    8205    8214    8213    0.      0.
CQUAD4   8140    12      8205    8206    8215    8214    0.      0.
CQUAD4   8141    12      8206    8207    8216    8215    0.      0.
CQUAD4   8142    12      8207    8208    8217    8216    0.      0.
CQUAD4   8143    12      8208    8209    8218    8217    0.      0.
CQUAD4   8144    12      8209    8197    8198    8218    0.      0.
CQUAD4   8145    12      8210    8211    8220    8219    0.      0.
CQUAD4   8146    12      8211    8212    8221    8220    0.      0.
CQUAD4   8147    12      8212    8213    8222    8221    0.      0.
CQUAD4   8148    12      8213    8214    8223    8222    0.      0.
CQUAD4   8149    12      8214    8215    8224    8223    0.      0.
CQUAD4   8150    12      8215    8216    8225    8224    0.      0.
CQUAD4   8151    12      8216    8217    8226    8225    0.      0.
CQUAD4   8152    12      8217    8218    8227    8226    0.      0.
CQUAD4   8153    12      8218    8198    8199    8227    0.      0.
CQUAD4   8154    12      8219    8220    8229    8228    0.      0.
CQUAD4   8155    12      8220    8221    8230    8229    0.      0.
CQUAD4   8156    12      8221    8222    8231    8230    0.      0.
CQUAD4   8157    12      8222    8223    8232    8231    0.      0.
CQUAD4   8158    12      8223    8224    8233    8232    0.      0.
CQUAD4   8159    12      8224    8225    8234    8233    0.      0.
CQUAD4   8160    12      8225    8226    8235    8234    0.      0.
CQUAD4   8161    12      8226    8227    8236    8235    0.      0.
CQUAD4   8162    12      8227    8199    8200    8236    0.      0.
CQUAD4   8163    12      8228    8229    8238    8237    0.      0.
CQUAD4   8164    12      8229    8230    8239    8238    0.      0.
CQUAD4   8165    12      8230    8231    8240    8239    0.      0.
CQUAD4   8166    12      8231    8232    8241    8240    0.      0.
CQUAD4   8167    12      8232    8233    8242    8241    0.      0.
CQUAD4   8168    12      8233    8234    8243    8242    0.      0.
CQUAD4   8169    12      8234    8235    8244    8243    0.      0.
CQUAD4   8170    12      8235    8236    8245    8244    0.      0.
CQUAD4   8171    12      8236    8200    8058    8245    0.      0.
CQUAD4   8172    12      8237    8238    8047    8046    0.      0.
CQUAD4   8173    12      8238    8239    8048    8047    0.      0.
CQUAD4   8174    12      8239    8240    8049    8048    0.      0.
CQUAD4   8175    12      8240    8241    8050    8049    0.      0.
CQUAD4   8176    12      8241    8242    8051    8050    0.      0.
CQUAD4   8177    12      8242    8243    8052    8051    0.      0.
CQUAD4   8178    12      8243    8244    8053    8052    0.      0.
CQUAD4   8179    12      8244    8245    8054    8053    0.      0.
CQUAD4   8180    12      8245    8058    8045    8054    0.      0.
CQUAD4   8181    12      8201    8192    8193    8210    0.      0.
CQUAD4   8182    12      8210    8193    8194    8219    0.      0.
CQUAD4   8183    12      8219    8194    8195    8228    0.      0.
CQUAD4   8184    12      8228    8195    8196    8237    0.      0.
CQUAD4   8185    12      8237    8196    8044    8046    0.      0.
CQUAD4   8286    12      8001    8055    8075    8000    0.      0.
CQUAD4   8287    12      8469    8473    8349    8068    0.      0.
CQUAD4   8288    12      8068    8349    8350    8069    0.      0.
CQUAD4   8289    12      8069    8350    8351    8070    0.      0.
CQUAD4   8290    12      8070    8351    8352    8055    0.      0.
CQUAD4   8291    12      8055    8352    4590    8001    0.      0.
CQUAD4   8292    12      8067    8015    8016    8189    0.      0.
CQUAD4   8293    12      8189    8016    8017    8190    0.      0.
CQUAD4   8294    12      8190    8017    8011    8191    0.      0.
CQUAD4   8295    12      8191    8011    8005    8009    0.      0.
CQUAD4   8304    12      8020    8009    8005    8013    0.      0.
$ Elements and Element Properties for region : pshell.13
PSHELL   13      1      1.2      1               1
$ Pset: "pshell.13" will be imported as: "pshell.13"
CQUAD4   4030    13      4546    4514    4515    4547    0.      0.
CQUAD4   4031    13      4547    4515    4505    4548    0.      0.
CQUAD4   4032    13      4548    4505    4506    4549    0.      0.
CQUAD4   4033    13      4549    4506    4504    4550    0.      0.
CQUAD4   4034    13      4550    4504    4508    4551    0.      0.
CQUAD4   4035    13      4551    4508    4507    4552    0.      0.
CQUAD4   4036    13      4552    4507    4513    4553    0.      0.
CQUAD4   4037    13      4553    4513    4512    4554    0.      0.
CQUAD4   4038    13      4554    4512    4511    4555    0.      0.
CQUAD4   4039    13      4555    4511    4510    4556    0.      0.
CQUAD4   4040    13      4556    4510    4509    4557    0.      0.
CQUAD4   4041    13      4557    4509    4502    4558    0.      0.
CQUAD4   4042    13      4558    4561    4503    4502    0.      0.
CQUAD4   4043    13      4561    4559    4500    4503    0.      0.
CQUAD4   4044    13      4559    4560    4501    4500    0.      0.
CQUAD4   4045    13      4560    4501    8000    4574    0.      0.
CQUAD4   4046    13      4562    4542    4592    4591    0.      0.
CQUAD4   4047    13      4542    4540    4593    4592    0.      0.
CQUAD4   4048    13      4540    4538    4594    4593    0.      0.
CQUAD4   4051    13      4538    4536    4595    4594    0.      0.
CQUAD4   4052    13      4536    4534    4596    4595    0.      0.
CQUAD4   4053    13      4534    4532    4597    4596    0.      0.
CQUAD4   4054    13      4532    4530    4598    4597    0.      0.
CQUAD4   4055    13      4530    4528    4599    4598    0.      0.
CQUAD4   4056    13      4528    4526    4600    4599    0.      0.
CQUAD4   4057    13      4526    4524    4601    4600    0.      0.
CQUAD4   4058    13      4524    4522    4602    4601    0.      0.
CQUAD4   4059    13      4522    4520    4603    4602    0.      0.
CQUAD4   4060    13      4520    4518    4604    4603    0.      0.
CQUAD4   4061    13      4518    4516    4605    4604    0.      0.
CQUAD4   4062    13      4516    4590    4606    4605    0.      0.
CQUAD4   4063    13      4591    4592    4568    4607    0.      0.
CQUAD4   4064    13      4592    4593    4565    4568    0.      0.
CQUAD4   4065    13      4593    4594    4610    4565    0.      0.
CQUAD4   4066    13      4594    4595    4611    4610    0.      0.
CQUAD4   4067    13      4595    4596    4612    4611    0.      0.
CQUAD4   4068    13      4596    4597    4613    4612    0.      0.
CQUAD4   4069    13      4597    4598    4614    4613    0.      0.
CQUAD4   4070    13      4598    4599    4615    4614    0.      0.
CQUAD4   4071    13      4599    4600    4616    4615    0.      0.
CQUAD4   4072    13      4600    4601    4617    4616    0.      0.
CQUAD4   4073    13      4601    4602    4618    4617    0.      0.
CQUAD4   4074    13      4602    4603    4619    4618    0.      0.
CQUAD4   4075    13      4603    4604    4620    4619    0.      0.
CQUAD4   4076    13      4604    4605    4621    4620    0.      0.
CQUAD4   4077    13      4605    4606    4622    4621    0.      0.
CQUAD4   4078    13      4607    4568    4567    4623    0.      0.
CQUAD4   4079    13      4568    4565    4564    4567    0.      0.
CQUAD4   4080    13      4565    4610    4626    4564    0.      0.
CQUAD4   4081    13      4610    4611    4627    4626    0.      0.
CQUAD4   4082    13      4611    4612    4628    4627    0.      0.
CQUAD4   4083    13      4612    4613    4629    4628    0.      0.
CQUAD4   4084    13      4613    4614    4630    4629    0.      0.
CQUAD4   4085    13      4614    4615    4631    4630    0.      0.
CQUAD4   4086    13      4615    4616    4632    4631    0.      0.
CQUAD4   4087    13      4616    4617    4633    4632    0.      0.
CQUAD4   4088    13      4617    4618    4634    4633    0.      0.
CQUAD4   4089    13      4618    4619    4635    4634    0.      0.
CQUAD4   4090    13      4619    4620    4636    4635    0.      0.
CQUAD4   4091    13      4620    4621    4637    4636    0.      0.
CQUAD4   4092    13      4621    4622    4638    4637    0.      0.
CQUAD4   4093    13      4623    4567    4566    4639    0.      0.
CQUAD4   4094    13      4567    4564    4563    4566    0.      0.
CQUAD4   4095    13      4564    4626    4642    4563    0.      0.
CQUAD4   4096    13      4626    4627    4643    4642    0.      0.
CQUAD4   4097    13      4627    4628    4644    4643    0.      0.
CQUAD4   4098    13      4628    4629    4645    4644    0.      0.
CQUAD4   4099    13      4629    4630    4646    4645    0.      0.
CQUAD4   4100    13      4630    4631    4647    4646    0.      0.
CQUAD4   4101    13      4631    4632    4648    4647    0.      0.
CQUAD4   4102    13      4632    4633    4649    4648    0.      0.
CQUAD4   4103    13      4633    4634    4650    4649    0.      0.
CQUAD4   4104    13      4634    4635    4651    4650    0.      0.
CQUAD4   4105    13      4635    4636    4652    4651    0.      0.
CQUAD4   4106    13      4636    4637    4653    4652    0.      0.
CQUAD4   4107    13      4637    4638    4654    4653    0.      0.
CQUAD4   4108    13      4639    4566    4656    4655    0.      0.
CQUAD4   4109    13      4566    4563    4657    4656    0.      0.
CQUAD4   4110    13      4563    4642    4658    4657    0.      0.
CQUAD4   4111    13      4642    4643    4659    4658    0.      0.
CQUAD4   4112    13      4643    4644    4660    4659    0.      0.
CQUAD4   4113    13      4644    4645    4661    4660    0.      0.
CQUAD4   4114    13      4645    4646    4662    4661    0.      0.
CQUAD4   4115    13      4646    4647    4663    4662    0.      0.
CQUAD4   4116    13      4647    4648    4664    4663    0.      0.
CQUAD4   4117    13      4648    4649    4665    4664    0.      0.
CQUAD4   4118    13      4649    4650    4666    4665    0.      0.
CQUAD4   4119    13      4650    4651    4667    4666    0.      0.
CQUAD4   4120    13      4651    4652    4668    4667    0.      0.
CQUAD4   4121    13      4652    4653    4669    4668    0.      0.
CQUAD4   4122    13      4653    4654    4670    4669    0.      0.
CQUAD4   4123    13      4672    4674    4669    4670    0.      0.
CQUAD4   4124    13      4674    4675    4668    4669    0.      0.
CQUAD4   4125    13      4675    4676    4667    4668    0.      0.
CQUAD4   4126    13      4676    4677    4666    4667    0.      0.
CQUAD4   4127    13      4677    4678    4665    4666    0.      0.
CQUAD4   4128    13      4678    4679    4664    4665    0.      0.
CQUAD4   4129    13      4679    4680    4663    4664    0.      0.
CQUAD4   4130    13      4680    4681    4662    4663    0.      0.
CQUAD4   4131    13      4681    4682    4661    4662    0.      0.
CQUAD4   4132    13      4682    4683    4660    4661    0.      0.
CQUAD4   4133    13      4683    4684    4659    4660    0.      0.
CQUAD4   4134    13      4684    4685    4658    4659    0.      0.
CQUAD4   4135    13      4685    4686    4657    4658    0.      0.
CQUAD4   4136    13      4686    4687    4656    4657    0.      0.
CQUAD4   4137    13      4687    4671    4655    4656    0.      0.
CQUAD4   4138    13      4685    4684    4720    4719    0.      0.
CTRIA3   4139    13      4720    4684    4721    0.      0.
CQUAD4   4140    13      4684    4683    4722    4721    0.      0.
CQUAD4   4141    13      4683    4682    4723    4722    0.      0.
CQUAD4   4142    13      4682    4681    4724    4723    0.      0.
CQUAD4   4143    13      4681    4680    4725    4724    0.      0.
CQUAD4   4144    13      4680    4679    4726    4725    0.      0.
CQUAD4   4145    13      4679    4678    4727    4726    0.      0.
CQUAD4   4146    13      4678    4677    4728    4727    0.      0.
CQUAD4   4147    13      4677    4676    4729    4728    0.      0.
CQUAD4   4148    13      4676    4675    4730    4729    0.      0.
CQUAD4   4149    13      4675    4674    4731    4730    0.      0.
CQUAD4   4150    13      4674    4672    4732    4731    0.      0.
CQUAD4   4151    13      4719    4720    4734    4733    0.      0.
CQUAD4   4152    13      4720    4721    4735    4734    0.      0.
CQUAD4   4153    13      4721    4722    4736    4735    0.      0.
CQUAD4   4154    13      4722    4723    4737    4736    0.      0.
CQUAD4   4155    13      4723    4724    4738    4737    0.      0.
CQUAD4   4156    13      4724    4725    4739    4738    0.      0.
CQUAD4   4157    13      4725    4726    4740    4739    0.      0.
CQUAD4   4158    13      4726    4727    4741    4740    0.      0.
CQUAD4   4159    13      4727    4728    4742    4741    0.      0.
CQUAD4   4160    13      4728    4729    4743    4742    0.      0.
CQUAD4   4161    13      4729    4730    4744    4743    0.      0.
CQUAD4   4162    13      4730    4731    4745    4744    0.      0.
CQUAD4   4163    13      4731    4732    4746    4745    0.      0.
CQUAD4   4164    13      4746    4745    4762    4761    0.      0.
CQUAD4   4165    13      4745    4744    4763    4762    0.      0.
CQUAD4   4166    13      4744    4743    4764    4763    0.      0.
CQUAD4   4167    13      4743    4742    4765    4764    0.      0.
CQUAD4   4168    13      4742    4741    4766    4765    0.      0.
CQUAD4   4169    13      4741    4740    4767    4766    0.      0.
CQUAD4   4170    13      4740    4739    4768    4767    0.      0.
CQUAD4   4171    13      4739    4738    4769    4768    0.      0.
CQUAD4   4172    13      4738    4737    4770    4769    0.      0.
CQUAD4   4173    13      4737    4736    4771    4770    0.      0.
CQUAD4   4174    13      4736    4735    4772    4771    0.      0.
CQUAD4   4175    13      4735    4734    4773    4772    0.      0.
CQUAD4   4176    13      4734    4733    4774    4773    0.      0.
CTRIA3   6000    13      6089    6087    6063    0.      0.
CQUAD4   6001    13      6025    6069    6070    6026    0.      0.
CQUAD4   6002    13      6069    6065    6064    6070    0.      0.
CQUAD4   6003    13      6026    6070    6071    6027    0.      0.
CQUAD4   6004    13      6070    6064    6067    6071    0.      0.
CQUAD4   6005    13      6027    6071    6072    6028    0.      0.
CQUAD4   6006    13      6071    6067    6066    6072    0.      0.
CQUAD4   6007    13      6028    6072    6073    6029    0.      0.
CQUAD4   6008    13      6072    6066    6068    6073    0.      0.
CQUAD4   6009    13      6029    6073    6074    6030    0.      0.
CQUAD4   6010    13      6073    6068    6057    6074    0.      0.
CQUAD4   6011    13      6030    6074    6075    6031    0.      0.
CQUAD4   6012    13      6074    6057    6058    6075    0.      0.
CQUAD4   6013    13      6031    6075    6076    6032    0.      0.
CQUAD4   6014    13      6075    6058    6059    6076    0.      0.
CQUAD4   6015    13      6032    6076    6077    6033    0.      0.
CQUAD4   6016    13      6076    6059    6060    6077    0.      0.
CQUAD4   6017    13      6033    6077    6078    6034    0.      0.
CQUAD4   6018    13      6077    6060    6061    6078    0.      0.
CQUAD4   6019    13      6034    6078    6079    6035    0.      0.
CQUAD4   6020    13      6078    6061    6055    6079    0.      0.
CQUAD4   6021    13      6035    6079    6080    6036    0.      0.
CQUAD4   6022    13      6079    6055    6056    6080    0.      0.
CQUAD4   6023    13      6036    6080    6081    6037    0.      0.
CQUAD4   6024    13      6080    6056    6053    6081    0.      0.
CQUAD4   6025    13      6037    6081    6082    6038    0.      0.
CQUAD4   6026    13      6081    6053    6054    6082    0.      0.
CQUAD4   6027    13      6038    6082    6083    6039    0.      0.
CQUAD4   6028    13      6082    6054    6052    6083    0.      0.
CQUAD4   6029    13      6039    6083    6214    6040    0.      0.
CQUAD4   6030    13      6083    6052    6051    6214    0.      0.
CQUAD4   6031    13      6040    6214    6084    6041    0.      0.
CQUAD4   6032    13      6042    6085    6086    6043    0.      0.
CQUAD4   6033    13      6085    6048    6062    6086    0.      0.
CQUAD4   6034    13      6043    6086    6087    6044    0.      0.
CQUAD4   6035    13      6086    6062    6063    6087    0.      0.
CQUAD4   6036    13      6051    6214    6084    6050    0.      0.
CQUAD4   6037    13      6050    6084    6088    6049    0.      0.
CQUAD4   6038    13      6084    6041    6046    6088    0.      0.
CQUAD4   6039    13      6088    6046    6042    6085    0.      0.
CQUAD4   6040    13      6048    6049    6088    6085    0.      0.
CQUAD4   6041    13      6045    6089    6087    6044    0.      0.
CQUAD4   6042    13      6105    6063    6062    6104    0.      0.
CQUAD4   6043    13      6104    6062    6048    6090    0.      0.
CQUAD4   6044    13      6090    6048    6049    6091    0.      0.
CQUAD4   6045    13      6091    6049    6050    6092    0.      0.
CQUAD4   6046    13      6092    6050    6051    6093    0.      0.
CQUAD4   6047    13      6093    6051    6052    6094    0.      0.
CQUAD4   6048    13      6094    6052    6054    6096    0.      0.
CQUAD4   6049    13      6096    6054    6053    6095    0.      0.
CQUAD4   6050    13      6095    6053    6056    6098    0.      0.
CQUAD4   6051    13      6098    6056    6055    6097    0.      0.
CQUAD4   6052    13      6097    6055    6061    6103    0.      0.
CQUAD4   6053    13      6103    6061    6060    6102    0.      0.
CQUAD4   6054    13      6102    6060    6059    6101    0.      0.
CQUAD4   6055    13      6101    6059    6058    6100    0.      0.
CQUAD4   6056    13      6100    6058    6057    6099    0.      0.
CQUAD4   6057    13      6108    6066    6067    6109    0.      0.
CQUAD4   6058    13      6109    6067    6064    6106    0.      0.
CQUAD4   6059    13      6106    6064    6065    6107    0.      0.
CQUAD4   6060    13      6259    6126    6125    6258    0.      0.
CQUAD4   6061    13      6258    6125    6111    6248    0.      0.
CQUAD4   6062    13      6248    6111    6112    6249    0.      0.
CQUAD4   6063    13      6249    6112    6113    6250    0.      0.
CQUAD4   6064    13      6250    6113    6114    6251    0.      0.
CQUAD4   6065    13      6251    6114    6115    6286    0.      0.
CQUAD4   6066    13      6286    6115    6117    6253    0.      0.
CQUAD4   6067    13      6253    6117    6116    6287    0.      0.
CQUAD4   6068    13      6287    6116    6119    6288    0.      0.
CQUAD4   6069    13      6288    6119    6118    6254    0.      0.
CQUAD4   6070    13      6254    6118    6124    6257    0.      0.
CQUAD4   6071    13      6257    6124    6123    6292    0.      0.
CQUAD4   6072    13      6292    6123    6122    6291    0.      0.
CQUAD4   6073    13      6291    6122    6121    6290    0.      0.
CQUAD4   6074    13      6290    6121    6120    6289    0.      0.
CQUAD4   6075    13      6289    6120    6131    6255    0.      0.
CQUAD4   6076    13      6255    6131    6129    6284    0.      0.
CQUAD4   6077    13      6284    6129    6130    6247    0.      0.
CQUAD4   6078    13      6247    6130    6127    6283    0.      0.
CQUAD4   6079    13      6283    6127    6128    8013    0.      0.
CQUAD4   6080    13      6066    6068    6110    6108    0.      0.
CQUAD4   6081    13      6068    6057    6099    6110    0.      0.
CQUAD4   6082    13      6132    6133    6135    6134    0.      0.
CQUAD4   6083    13      6134    6135    6139    6138    0.      0.
CQUAD4   6084    13      6135    6270    6136    6139    0.      0.
CQUAD4   6085    13      6270    6137    6141    6136    0.      0.
CQUAD4   6086    13      6022    6138    6144    6021    0.      0.
CQUAD4   6087    13      6138    6139    6145    6144    0.      0.
CQUAD4   6088    13      6139    6136    6142    6145    0.      0.
CQUAD4   6089    13      6136    6141    6143    6142    0.      0.
CQUAD4   6090    13      6021    6144    6146    6020    0.      0.
CQUAD4   6091    13      6144    6145    6147    6146    0.      0.
CQUAD4   6092    13      6145    6142    6148    6147    0.      0.
CQUAD4   6093    13      6142    6143    6149    6148    0.      0.
CQUAD4   6094    13      6020    6146    6151    6019    0.      0.
CQUAD4   6095    13      6146    6147    6152    6151    0.      0.
CQUAD4   6096    13      6147    6148    6150    6152    0.      0.
CQUAD4   6097    13      6148    6149    6045    6150    0.      0.
CQUAD4   6098    13      6019    6151    6153    6018    0.      0.
CQUAD4   6099    13      6151    6152    6154    6153    0.      0.
CQUAD4   6100    13      6152    6150    6263    6154    0.      0.
CTRIA3   6101    13      6045    6150    6263    0.      0.
CQUAD4   6102    13      6018    6153    6155    6017    0.      0.
CQUAD4   6103    13      6153    6154    6157    6155    0.      0.
CQUAD4   6104    13      6154    6263    6156    6157    0.      0.
CQUAD4   6105    13      6263    6044    6043    6156    0.      0.
CQUAD4   6106    13      6017    6155    6159    6016    0.      0.
CQUAD4   6107    13      6155    6157    6160    6159    0.      0.
CQUAD4   6108    13      6157    6156    6271    6160    0.      0.
CQUAD4   6109    13      6156    6043    6042    6271    0.      0.
CQUAD4   6110    13      6016    6159    6162    6024    0.      0.
CQUAD4   6111    13      6159    6160    6163    6162    0.      0.
CQUAD4   6112    13      6160    6271    6272    6163    0.      0.
CQUAD4   6113    13      6271    6042    6046    6272    0.      0.
CQUAD4   6114    13      6229    6165    6167    6252    0.      0.
CQUAD4   6115    13      6165    6164    6169    6167    0.      0.
CQUAD4   6116    13      6164    6166    6168    6169    0.      0.
CQUAD4   6117    13      6166    6040    6039    6168    0.      0.
CQUAD4   6118    13      6252    6167    6170    6013    0.      0.
CQUAD4   6119    13      6167    6169    6172    6170    0.      0.
CQUAD4   6120    13      6169    6168    6171    6172    0.      0.
CQUAD4   6121    13      6168    6039    6038    6171    0.      0.
CQUAD4   6122    13      6013    6170    6173    6269    0.      0.
CQUAD4   6123    13      6170    6172    6175    6173    0.      0.
CQUAD4   6124    13      6172    6171    6174    6175    0.      0.
CQUAD4   6125    13      6171    6038    6037    6174    0.      0.
CQUAD4   6126    13      6269    6173    6177    6268    0.      0.
CQUAD4   6127    13      6173    6175    6176    6177    0.      0.
CQUAD4   6128    13      6175    6174    6178    6176    0.      0.
CQUAD4   6129    13      6174    6037    6036    6178    0.      0.
CQUAD4   6130    13      6009    6181    6183    6266    0.      0.
CQUAD4   6131    13      6181    6179    6182    6183    0.      0.
CQUAD4   6132    13      6179    6180    6184    6182    0.      0.
CQUAD4   6133    13      6180    6034    6033    6184    0.      0.
CQUAD4   6134    13      6266    6183    6185    6256    0.      0.
CQUAD4   6135    13      6183    6182    6187    6185    0.      0.
CQUAD4   6136    13      6182    6184    6186    6187    0.      0.
CQUAD4   6137    13      6184    6033    6032    6186    0.      0.
CQUAD4   6138    13      6256    6185    6188    6265    0.      0.
CQUAD4   6139    13      6185    6187    6190    6188    0.      0.
CQUAD4   6140    13      6187    6186    6189    6190    0.      0.
CQUAD4   6141    13      6186    6032    6031    6189    0.      0.
CQUAD4   6142    13      6004    6192    6194    6003    0.      0.
CQUAD4   6143    13      6192    6191    6195    6194    0.      0.
CQUAD4   6144    13      6191    6273    6196    6195    0.      0.
CQUAD4   6145    13      6273    6029    6028    6196    0.      0.
CQUAD4   6146    13      6003    6194    6197    6002    0.      0.
CQUAD4   6147    13      6194    6195    6199    6197    0.      0.
CQUAD4   6148    13      6195    6196    6274    6199    0.      0.
CQUAD4   6149    13      6196    6028    6027    6274    0.      0.
CQUAD4   6150    13      6002    6197    6200    6001    0.      0.
CQUAD4   6151    13      6197    6199    6047    6200    0.      0.
CQUAD4   6152    13      6199    6274    6275    6047    0.      0.
CQUAD4   6153    13      6274    6027    6026    6275    0.      0.
CQUAD4   6154    13      6200    6047    6203    6202    0.      0.
CQUAD4   6155    13      6047    6275    6276    6203    0.      0.
CQUAD4   6156    13      6229    6015    6205    6165    0.      0.
CQUAD4   6157    13      6165    6205    6206    6164    0.      0.
CQUAD4   6158    13      6164    6206    6207    6166    0.      0.
CQUAD4   6159    13      6207    6272    6163    6206    0.      0.
CQUAD4   6160    13      6206    6205    6162    6163    0.      0.
CQUAD4   6161    13      6205    6015    6024    6162    0.      0.
CQUAD4   6162    13      6177    6268    6267    6208    0.      0.
CQUAD4   6163    13      6208    6267    6009    6181    0.      0.
CQUAD4   6164    13      6181    6179    6209    6208    0.      0.
CQUAD4   6165    13      6208    6177    6176    6209    0.      0.
CQUAD4   6166    13      6209    6179    6180    6210    0.      0.
CQUAD4   6167    13      6210    6209    6176    6178    0.      0.
CQUAD4   6168    13      6265    6264    6211    6188    0.      0.
CQUAD4   6169    13      6188    6211    6212    6190    0.      0.
CQUAD4   6170    13      6190    6212    6213    6189    0.      0.
CQUAD4   6171    13      6030    6031    6189    6213    0.      0.
CQUAD4   6172    13      6264    6004    6192    6211    0.      0.
CQUAD4   6173    13      6211    6192    6191    6212    0.      0.
CQUAD4   6174    13      6212    6191    6273    6213    0.      0.
CQUAD4   6175    13      6213    6273    6029    6030    0.      0.
CQUAD4   6176    13      6001    8003    6202    6200    0.      0.
CQUAD4   6177    13      6275    6276    6025    6026    0.      0.
CQUAD4   6178    13      6166    6207    6041    6040    0.      0.
CQUAD4   6179    13      6207    6272    6046    6041    0.      0.
CQUAD4   6180    13      6034    6180    6210    6035    0.      0.
CQUAD4   6181    13      6178    6210    6035    6036    0.      0.
CQUAD4   6230    13      6138    6134    6241    6022    0.      0.
CQUAD4   6231    13      6241    6134    6132    6242    0.      0.
CTRIA3   6236    13      6133    6135    6270    0.      0.
CTRIA3   6600    13      6045    6263    6044    0.      0.
CTRIA3   8003    13      8473    8469    8474    0.      0.
CTRIA3   8004    13      8474    8472    8353    0.      0.
CTRIA3   8005    13      8010    8014    8316    0.      0.
CTRIA3   8006    13      8063    8316    8279    0.      0.
CQUAD4   8186    13      8280    8353    8471    8281    0.      0.
CQUAD4   8187    13      8281    8471    8246    8282    0.      0.
CQUAD4   8188    13      8282    8246    8247    8283    0.      0.
CQUAD4   8189    13      8283    8247    8248    8284    0.      0.
CQUAD4   8190    13      8284    8248    8249    8285    0.      0.
CQUAD4   8191    13      8285    8249    8250    8286    0.      0.
CQUAD4   8192    13      8286    8250    8251    8287    0.      0.
CQUAD4   8193    13      8287    8251    8252    8288    0.      0.
CQUAD4   8194    13      8288    8252    8253    8289    0.      0.
CQUAD4   8195    13      8289    8253    8254    8290    0.      0.
CQUAD4   8196    13      8290    8254    8255    8291    0.      0.
CQUAD4   8197    13      8291    8255    8256    8292    0.      0.
CQUAD4   8198    13      8292    8256    8257    8293    0.      0.
CQUAD4   8199    13      8293    8257    8258    8294    0.      0.
CQUAD4   8200    13      8294    8258    8259    8295    0.      0.
CQUAD4   8201    13      8295    8259    8260    8296    0.      0.
CQUAD4   8202    13      8296    8260    8261    8297    0.      0.
CQUAD4   8203    13      8297    8261    8262    8298    0.      0.
CQUAD4   8204    13      8298    8262    8263    8299    0.      0.
CQUAD4   8205    13      8299    8263    8264    8300    0.      0.
CQUAD4   8206    13      8300    8264    8265    8301    0.      0.
CQUAD4   8207    13      8301    8265    8266    8302    0.      0.
CQUAD4   8208    13      8302    8266    8267    8303    0.      0.
CQUAD4   8209    13      8303    8267    8268    8304    0.      0.
CQUAD4   8210    13      8304    8268    8269    8305    0.      0.
CQUAD4   8211    13      8305    8269    8270    8306    0.      0.
CQUAD4   8212    13      8306    8270    8271    8307    0.      0.
CQUAD4   8213    13      8307    8271    8272    8308    0.      0.
CQUAD4   8214    13      8308    8272    8273    8309    0.      0.
CQUAD4   8215    13      8309    8273    8274    8310    0.      0.
CQUAD4   8216    13      8310    8274    8275    8311    0.      0.
CQUAD4   8217    13      8311    8275    8276    8312    0.      0.
CQUAD4   8218    13      8312    8276    8277    8313    0.      0.
CQUAD4   8219    13      8313    8277    8278    8314    0.      0.
CQUAD4   8220    13      8314    8278    8279    8315    0.      0.
CQUAD4   8221    13      8188    8317    8318    8192    0.      0.
CQUAD4   8222    13      8317    8276    8275    8318    0.      0.
CQUAD4   8223    13      8192    8318    8319    8201    0.      0.
CQUAD4   8224    13      8318    8275    8274    8319    0.      0.
CQUAD4   8225    13      8201    8319    8320    8202    0.      0.
CQUAD4   8226    13      8319    8274    8273    8320    0.      0.
CQUAD4   8227    13      8202    8320    8321    8203    0.      0.
CQUAD4   8228    13      8320    8273    8272    8321    0.      0.
CQUAD4   8229    13      8203    8321    8322    8204    0.      0.
CQUAD4   8230    13      8321    8272    8271    8322    0.      0.
CQUAD4   8231    13      8204    8322    8323    8205    0.      0.
CQUAD4   8232    13      8322    8271    8270    8323    0.      0.
CQUAD4   8233    13      8205    8323    8324    8206    0.      0.
CQUAD4   8234    13      8323    8270    8269    8324    0.      0.
CQUAD4   8235    13      8206    8324    8325    8207    0.      0.
CQUAD4   8236    13      8324    8269    8268    8325    0.      0.
CQUAD4   8237    13      8207    8325    8326    8208    0.      0.
CQUAD4   8238    13      8325    8268    8267    8326    0.      0.
CQUAD4   8239    13      8208    8326    8327    8209    0.      0.
CQUAD4   8240    13      8326    8267    8266    8327    0.      0.
CQUAD4   8241    13      8209    8327    8328    8197    0.      0.
CQUAD4   8242    13      8327    8266    8265    8328    0.      0.
CQUAD4   8243    13      8197    8328    8329    8169    0.      0.
CQUAD4   8244    13      8328    8265    8264    8329    0.      0.
CQUAD4   8245    13      8169    8329    8330    8154    0.      0.
CQUAD4   8246    13      8329    8264    8263    8330    0.      0.
CQUAD4   8247    13      8154    8330    8331    8155    0.      0.
CQUAD4   8248    13      8330    8263    8262    8331    0.      0.
CQUAD4   8249    13      8155    8331    8332    8168    0.      0.
CQUAD4   8250    13      8331    8262    8261    8332    0.      0.
CQUAD4   8251    13      8168    8332    8333    8149    0.      0.
CQUAD4   8252    13      8332    8261    8260    8333    0.      0.
CQUAD4   8253    13      8149    8333    8334    8134    0.      0.
CQUAD4   8254    13      8333    8260    8259    8334    0.      0.
CQUAD4   8255    13      8134    8334    8335    8135    0.      0.
CQUAD4   8256    13      8334    8259    8258    8335    0.      0.
CQUAD4   8257    13      8135    8335    8336    8148    0.      0.
CQUAD4   8258    13      8335    8258    8257    8336    0.      0.
CQUAD4   8259    13      8148    8336    8337    8129    0.      0.
CQUAD4   8260    13      8336    8257    8256    8337    0.      0.
CQUAD4   8261    13      8129    8337    8338    8115    0.      0.
CQUAD4   8262    13      8337    8256    8255    8338    0.      0.
CQUAD4   8263    13      8115    8338    8339    8116    0.      0.
CQUAD4   8264    13      8338    8255    8254    8339    0.      0.
CQUAD4   8265    13      8116    8339    8340    8128    0.      0.
CQUAD4   8266    13      8339    8254    8253    8340    0.      0.
CQUAD4   8267    13      8128    8340    8341    8090    0.      0.
CQUAD4   8268    13      8340    8253    8252    8341    0.      0.
CQUAD4   8269    13      8090    8341    8342    8076    0.      0.
CQUAD4   8270    13      8341    8252    8251    8342    0.      0.
CQUAD4   8271    13      8076    8342    8343    8077    0.      0.
CQUAD4   8272    13      8342    8251    8250    8343    0.      0.
CQUAD4   8273    13      8077    8343    8344    8089    0.      0.
CQUAD4   8274    13      8343    8250    8249    8344    0.      0.
CQUAD4   8275    13      8089    8344    8345    8095    0.      0.
CQUAD4   8276    13      8344    8249    8248    8345    0.      0.
CQUAD4   8277    13      8095    8345    8059    8100    0.      0.
CQUAD4   8278    13      8345    8248    8247    8059    0.      0.
CQUAD4   8279    13      8100    8059    8060    8101    0.      0.
CQUAD4   8280    13      8059    8247    8246    8060    0.      0.
CQUAD4   8281    13      8101    8060    8066    8114    0.      0.
CQUAD4   8282    13      8060    8246    8471    8066    0.      0.
CQUAD4   8283    13      8114    8066    8472    8470    0.      0.
CQUAD4   8284    13      8066    8471    8353    8472    0.      0.
CQUAD4   8285    13      8470    8472    8474    8469    0.      0.
CQUAD4   8296    13      8062    8067    8015    8063    0.      0.
CQUAD4   8297    13      8063    8015    8014    8316    0.      0.
CQUAD4   8298    13      8278    8064    8062    8279    0.      0.
CQUAD4   8299    13      8174    8067    8062    8064    0.      0.
CQUAD4   8300    13      8065    8175    8174    8064    0.      0.
CQUAD4   8301    13      8317    8188    8175    8065    0.      0.
CQUAD4   8302    13      8317    8065    8277    8276    0.      0.
CQUAD4   8303    13      8277    8065    8064    8278    0.      0.
CTRIA3   8305    13      4590    8464    8001    0.      0.
CTRIA3   8306    13      8464    8463    8462    0.      0.
CTRIA3   8307    13      8003    8429    8012    0.      0.
CTRIA3   8308    13      8466    8392    8429    0.      0.
CQUAD4   8314    13      8398    8399    8363    8362    0.      0.
CQUAD4   8315    13      8399    8400    8364    8363    0.      0.
CQUAD4   8316    13      8400    8401    8365    8364    0.      0.
CQUAD4   8317    13      8401    8402    8366    8365    0.      0.
CQUAD4   8318    13      8402    8403    8367    8366    0.      0.
CQUAD4   8319    13      8403    8404    8368    8367    0.      0.
CQUAD4   8320    13      8404    8405    8369    8368    0.      0.
CQUAD4   8321    13      8405    8406    8370    8369    0.      0.
CQUAD4   8322    13      8406    8407    8371    8370    0.      0.
CQUAD4   8323    13      8407    8408    8372    8371    0.      0.
CQUAD4   8324    13      8408    8409    8373    8372    0.      0.
CQUAD4   8325    13      8409    8410    8374    8373    0.      0.
CQUAD4   8326    13      8410    8411    8375    8374    0.      0.
CQUAD4   8327    13      8411    8412    8376    8375    0.      0.
CQUAD4   8328    13      8412    8413    8377    8376    0.      0.
CQUAD4   8329    13      8413    8414    8378    8377    0.      0.
CQUAD4   8330    13      8414    8415    8379    8378    0.      0.
CQUAD4   8331    13      8415    8416    8380    8379    0.      0.
CQUAD4   8332    13      8416    8417    8381    8380    0.      0.
CQUAD4   8333    13      8417    8418    8382    8381    0.      0.
CQUAD4   8334    13      8418    8419    8383    8382    0.      0.
CQUAD4   8335    13      8419    8420    8384    8383    0.      0.
CQUAD4   8336    13      8420    8421    8385    8384    0.      0.
CQUAD4   8337    13      8421    8422    8386    8385    0.      0.
CQUAD4   8338    13      8422    8423    8387    8386    0.      0.
CQUAD4   8339    13      8423    8424    8388    8387    0.      0.
CQUAD4   8340    13      8424    8425    8389    8388    0.      0.
CQUAD4   8341    13      8425    8426    8390    8389    0.      0.
CQUAD4   8342    13      8426    8427    8391    8390    0.      0.
CQUAD4   8343    13      8427    8428    8392    8391    0.      0.
CQUAD4   8344    13      8041    8044    8431    8430    0.      0.
CQUAD4   8345    13      8430    8431    8388    8389    0.      0.
CQUAD4   8346    13      8044    8046    8432    8431    0.      0.
CQUAD4   8347    13      8431    8432    8387    8388    0.      0.
CQUAD4   8348    13      8046    8047    8433    8432    0.      0.
CQUAD4   8349    13      8432    8433    8386    8387    0.      0.
CQUAD4   8350    13      8047    8048    8434    8433    0.      0.
CQUAD4   8351    13      8433    8434    8385    8386    0.      0.
CQUAD4   8352    13      8048    8049    8435    8434    0.      0.
CQUAD4   8353    13      8434    8435    8384    8385    0.      0.
CQUAD4   8354    13      8049    8050    8436    8435    0.      0.
CQUAD4   8355    13      8435    8436    8383    8384    0.      0.
CQUAD4   8356    13      8050    8051    8437    8436    0.      0.
CQUAD4   8357    13      8436    8437    8382    8383    0.      0.
CQUAD4   8358    13      8051    8052    8438    8437    0.      0.
CQUAD4   8359    13      8437    8438    8381    8382    0.      0.
CQUAD4   8360    13      8052    8053    8439    8438    0.      0.
CQUAD4   8361    13      8438    8439    8380    8381    0.      0.
CQUAD4   8362    13      8053    8054    8440    8439    0.      0.
CQUAD4   8363    13      8439    8440    8379    8380    0.      0.
CQUAD4   8364    13      8054    8045    8441    8440    0.      0.
CQUAD4   8365    13      8440    8441    8378    8379    0.      0.
CQUAD4   8366    13      8045    8040    8442    8441    0.      0.
CQUAD4   8367    13      8441    8442    8377    8378    0.      0.
CQUAD4   8368    13      8040    8039    8443    8442    0.      0.
CQUAD4   8369    13      8442    8443    8376    8377    0.      0.
CQUAD4   8370    13      8039    8038    8444    8443    0.      0.
CQUAD4   8371    13      8443    8444    8375    8376    0.      0.
CQUAD4   8372    13      8038    8037    8445    8444    0.      0.
CQUAD4   8373    13      8444    8445    8374    8375    0.      0.
CQUAD4   8374    13      8037    8036    8446    8445    0.      0.
CQUAD4   8375    13      8445    8446    8373    8374    0.      0.
CQUAD4   8376    13      8036    8035    8447    8446    0.      0.
CQUAD4   8377    13      8446    8447    8372    8373    0.      0.
CQUAD4   8378    13      8035    8034    8448    8447    0.      0.
CQUAD4   8379    13      8447    8448    8371    8372    0.      0.
CQUAD4   8380    13      8034    8033    8449    8448    0.      0.
CQUAD4   8381    13      8448    8449    8370    8371    0.      0.
CQUAD4   8382    13      8033    8032    8450    8449    0.      0.
CQUAD4   8383    13      8449    8450    8369    8370    0.      0.
CQUAD4   8384    13      8032    8024    8451    8450    0.      0.
CQUAD4   8385    13      8450    8451    8368    8369    0.      0.
CQUAD4   8386    13      8024    8023    8452    8451    0.      0.
CQUAD4   8387    13      8451    8452    8367    8368    0.      0.
CQUAD4   8388    13      8023    8031    8453    8452    0.      0.
CQUAD4   8389    13      8452    8453    8366    8367    0.      0.
CQUAD4   8390    13      8031    8026    8454    8453    0.      0.
CQUAD4   8391    13      8453    8454    8365    8366    0.      0.
CQUAD4   8392    13      8026    8025    8455    8454    0.      0.
CQUAD4   8393    13      8454    8455    8364    8365    0.      0.
CQUAD4   8394    13      8025    8022    8456    8455    0.      0.
CQUAD4   8395    13      8455    8456    8363    8364    0.      0.
CQUAD4   8396    13      8022    8021    8457    8456    0.      0.
CQUAD4   8397    13      8456    8457    8362    8363    0.      0.
CQUAD4   8398    13      8021    8027    8458    8457    0.      0.
CQUAD4   8399    13      8457    8458    8361    8362    0.      0.
CQUAD4   8400    13      8027    8030    8459    8458    0.      0.
CQUAD4   8401    13      8458    8459    8360    8361    0.      0.
CQUAD4   8402    13      8030    8029    8460    8459    0.      0.
CQUAD4   8403    13      8459    8460    8359    8360    0.      0.
CQUAD4   8404    13      8029    8028    8461    8460    0.      0.
CQUAD4   8405    13      8460    8461    8358    8359    0.      0.
CQUAD4   8406    13      8028    8000    8462    8461    0.      0.
CQUAD4   8407    13      8461    8462    8463    8358    0.      0.
CQUAD4   8408    13      8000    8001    8464    8462    0.      0.
CQUAD4   8409    13      8465    8466    8013    8020    0.      0.
CQUAD4   8410    13      8466    8429    8012    8013    0.      0.
CQUAD4   8411    13      8391    8392    8465    8467    0.      0.
CQUAD4   8412    13      8043    8467    8465    8020    0.      0.
CQUAD4   8413    13      8468    8467    8043    8042    0.      0.
CQUAD4   8414    13      8430    8468    8042    8041    0.      0.
CQUAD4   8415    13      8430    8389    8390    8468    0.      0.
CQUAD4   8416    13      8390    8391    8467    8468    0.      0.
CTRIA3   8417    13      8465    8466    8392    0.      0.
CTRIA3   8418    13      8062    8279    8063    0.      0.
$ Elements and Element Properties for region : pshell.14
PSHELL   15      1      1.2      1               1
$ Pset: "pshell.14" will be imported as: "pshell.15"
CQUAD4   10000   15      10005   10006   10014   10013   0.      0.
CQUAD4   10001   15      10006   10007   10015   10014   0.      0.
CQUAD4   10002   15      10007   10008   10016   10015   0.      0.
CQUAD4   10003   15      10008   10009   10017   10016   0.      0.
CQUAD4   10004   15      10009   10010   10018   10017   0.      0.
CQUAD4   10005   15      10010   10011   10019   10018   0.      0.
CQUAD4   10006   15      10011   10012   10020   10019   0.      0.
CQUAD4   10007   15      10013   10014   10022   10021   0.      0.
CQUAD4   10008   15      10014   10015   10023   10022   0.      0.
CQUAD4   10009   15      10015   10016   10024   10023   0.      0.
CQUAD4   10010   15      10016   10017   10025   10024   0.      0.
CQUAD4   10011   15      10017   10018   10026   10025   0.      0.
CQUAD4   10012   15      10018   10019   10027   10026   0.      0.
CQUAD4   10013   15      10019   10020   10028   10027   0.      0.
CQUAD4   10014   15      10021   10022   10030   10029   0.      0.
CQUAD4   10015   15      10022   10023   10031   10030   0.      0.
CQUAD4   10016   15      10023   10024   10032   10031   0.      0.
CQUAD4   10017   15      10024   10025   10033   10032   0.      0.
CQUAD4   10018   15      10025   10026   10034   10033   0.      0.
CQUAD4   10019   15      10026   10027   10035   10034   0.      0.
CQUAD4   10020   15      10027   10028   10036   10035   0.      0.
CQUAD4   10021   15      10029   10030   10561   10037   0.      0.
CQUAD4   10022   15      10561   10038   10031   10030   0.      0.
CQUAD4   10023   15      10031   10032   10039   10038   0.      0.
CQUAD4   10024   15      10032   10033   10040   10039   0.      0.
CQUAD4   10025   15      10033   10034   10041   10040   0.      0.
CQUAD4   10026   15      10034   10035   10042   10041   0.      0.
CQUAD4   10027   15      10035   10036   10043   10042   0.      0.
CQUAD4   10028   15      10037   10561   10045   10044   0.      0.
CQUAD4   10029   15      10561   10038   10046   10045   0.      0.
CQUAD4   10030   15      10038   10039   10047   10046   0.      0.
CQUAD4   10031   15      10039   10040   10048   10047   0.      0.
CQUAD4   10032   15      10040   10041   10049   10048   0.      0.
CQUAD4   10033   15      10041   10042   10050   10049   0.      0.
CQUAD4   10034   15      10042   10043   10051   10050   0.      0.
CQUAD4   10035   15      10044   10045   10053   10052   0.      0.
CQUAD4   10036   15      10045   10046   10054   10053   0.      0.
CQUAD4   10037   15      10046   10047   10055   10054   0.      0.
CQUAD4   10038   15      10047   10048   10056   10055   0.      0.
CQUAD4   10039   15      10048   10049   10057   10056   0.      0.
CQUAD4   10040   15      10049   10050   10058   10057   0.      0.
CQUAD4   10041   15      10050   10051   10059   10058   0.      0.
CQUAD4   10042   15      10052   10053   10061   10060   0.      0.
CQUAD4   10043   15      10053   10054   10062   10061   0.      0.
CQUAD4   10044   15      10054   10055   10063   10062   0.      0.
CQUAD4   10045   15      10055   10056   10064   10063   0.      0.
CQUAD4   10046   15      10056   10057   10065   10064   0.      0.
CQUAD4   10047   15      10057   10058   10066   10065   0.      0.
CQUAD4   10048   15      10058   10059   10067   10066   0.      0.
CQUAD4   10049   15      10060   10061   10069   10068   0.      0.
CQUAD4   10050   15      10061   10062   10070   10069   0.      0.
CQUAD4   10051   15      10062   10063   10071   10070   0.      0.
CQUAD4   10052   15      10063   10064   10072   10071   0.      0.
CQUAD4   10053   15      10064   10065   10073   10072   0.      0.
CQUAD4   10054   15      10065   10066   10074   10073   0.      0.
CQUAD4   10055   15      10066   10067   10075   10074   0.      0.
CQUAD4   10056   15      10068   10069   10077   10076   0.      0.
CQUAD4   10057   15      10069   10070   10078   10077   0.      0.
CQUAD4   10058   15      10070   10071   10079   10078   0.      0.
CQUAD4   10059   15      10071   10072   10080   10079   0.      0.
CQUAD4   10060   15      10072   10073   10081   10080   0.      0.
CQUAD4   10061   15      10073   10074   10082   10081   0.      0.
CQUAD4   10062   15      10074   10075   10083   10082   0.      0.
CQUAD4   10063   15      10076   10077   10085   10084   0.      0.
CQUAD4   10064   15      10077   10078   10086   10085   0.      0.
CQUAD4   10065   15      10078   10079   10087   10086   0.      0.
CQUAD4   10066   15      10079   10080   10088   10087   0.      0.
CQUAD4   10067   15      10080   10081   10089   10088   0.      0.
CQUAD4   10068   15      10081   10082   10090   10089   0.      0.
CQUAD4   10069   15      10082   10083   10091   10090   0.      0.
CQUAD4   10070   15      10084   10085   10093   10092   0.      0.
CQUAD4   10071   15      10085   10086   10094   10093   0.      0.
CQUAD4   10072   15      10086   10087   10095   10094   0.      0.
CQUAD4   10073   15      10087   10088   10096   10095   0.      0.
CQUAD4   10074   15      10088   10089   10097   10096   0.      0.
CQUAD4   10075   15      10089   10090   10098   10097   0.      0.
CQUAD4   10076   15      10090   10091   10099   10098   0.      0.
CQUAD4   10077   15      10092   10093   10101   10100   0.      0.
CQUAD4   10078   15      10093   10094   10102   10101   0.      0.
CQUAD4   10079   15      10094   10095   10103   10102   0.      0.
CQUAD4   10080   15      10095   10096   10104   10103   0.      0.
CQUAD4   10081   15      10096   10097   10105   10104   0.      0.
CQUAD4   10082   15      10097   10098   10106   10105   0.      0.
CQUAD4   10083   15      10098   10099   10107   10106   0.      0.
CQUAD4   10084   15      10100   10101   10109   10108   0.      0.
CQUAD4   10085   15      10101   10102   10110   10109   0.      0.
CQUAD4   10086   15      10102   10103   10111   10110   0.      0.
CQUAD4   10087   15      10103   10104   10112   10111   0.      0.
CQUAD4   10088   15      10104   10105   10113   10112   0.      0.
CQUAD4   10089   15      10105   10106   10114   10113   0.      0.
CQUAD4   10090   15      10106   10107   10115   10114   0.      0.
CQUAD4   10091   15      10108   10109   10117   10116   0.      0.
CQUAD4   10092   15      10109   10110   10118   10117   0.      0.
CQUAD4   10093   15      10110   10111   10119   10118   0.      0.
CQUAD4   10094   15      10111   10112   10120   10119   0.      0.
CQUAD4   10095   15      10112   10113   10121   10120   0.      0.
CQUAD4   10096   15      10113   10114   10122   10121   0.      0.
CQUAD4   10097   15      10114   10115   10123   10122   0.      0.
CQUAD4   10098   15      10116   10117   10125   10124   0.      0.
CQUAD4   10099   15      10117   10118   10126   10125   0.      0.
CQUAD4   10100   15      10118   10119   10127   10126   0.      0.
CQUAD4   10101   15      10119   10120   10128   10127   0.      0.
CQUAD4   10102   15      10120   10121   10129   10128   0.      0.
CQUAD4   10103   15      10121   10122   10130   10129   0.      0.
CQUAD4   10104   15      10122   10123   10131   10130   0.      0.
CQUAD4   10105   15      10124   10125   10133   10132   0.      0.
CQUAD4   10106   15      10125   10126   10134   10133   0.      0.
CQUAD4   10107   15      10126   10127   10135   10134   0.      0.
CQUAD4   10108   15      10127   10128   10136   10135   0.      0.
CQUAD4   10109   15      10128   10129   10137   10136   0.      0.
CQUAD4   10110   15      10129   10130   10138   10137   0.      0.
CQUAD4   10111   15      10130   10131   10139   10138   0.      0.
CQUAD4   10112   15      10132   10133   10141   10140   0.      0.
CQUAD4   10113   15      10133   10134   10142   10141   0.      0.
CQUAD4   10114   15      10134   10135   10143   10142   0.      0.
CQUAD4   10115   15      10135   10136   10144   10143   0.      0.
CQUAD4   10116   15      10136   10137   10145   10144   0.      0.
CQUAD4   10117   15      10137   10138   10146   10145   0.      0.
CQUAD4   10118   15      10138   10139   10147   10146   0.      0.
CQUAD4   10119   15      10140   10141   10149   10148   0.      0.
CQUAD4   10120   15      10141   10142   10150   10149   0.      0.
CQUAD4   10121   15      10142   10143   10151   10150   0.      0.
CQUAD4   10122   15      10143   10144   10152   10151   0.      0.
CQUAD4   10123   15      10144   10145   10153   10152   0.      0.
CQUAD4   10124   15      10145   10146   10154   10153   0.      0.
CQUAD4   10125   15      10146   10147   10155   10154   0.      0.
CQUAD4   10126   15      10148   10149   10157   10156   0.      0.
CQUAD4   10127   15      10149   10150   10158   10157   0.      0.
CQUAD4   10128   15      10150   10151   10159   10158   0.      0.
CQUAD4   10129   15      10151   10152   10160   10159   0.      0.
CQUAD4   10130   15      10152   10153   10161   10160   0.      0.
CQUAD4   10131   15      10153   10154   10162   10161   0.      0.
CQUAD4   10132   15      10154   10155   10163   10162   0.      0.
CQUAD4   10133   15      10156   10157   10165   10164   0.      0.
CQUAD4   10134   15      10157   10158   10166   10165   0.      0.
CQUAD4   10135   15      10158   10159   10167   10166   0.      0.
CQUAD4   10136   15      10159   10160   10168   10167   0.      0.
CQUAD4   10137   15      10160   10161   10169   10168   0.      0.
CQUAD4   10138   15      10161   10162   10170   10169   0.      0.
CQUAD4   10139   15      10162   10163   10171   10170   0.      0.
CQUAD4   10140   15      10164   10165   10173   10172   0.      0.
CQUAD4   10141   15      10165   10166   10174   10173   0.      0.
CQUAD4   10142   15      10166   10167   10175   10174   0.      0.
CQUAD4   10143   15      10167   10168   10176   10175   0.      0.
CQUAD4   10144   15      10168   10169   10177   10176   0.      0.
CQUAD4   10145   15      10169   10170   10178   10177   0.      0.
CQUAD4   10146   15      10170   10171   10179   10178   0.      0.
CQUAD4   10147   15      10172   10173   10181   10180   0.      0.
CQUAD4   10148   15      10173   10174   10182   10181   0.      0.
CQUAD4   10149   15      10174   10175   10183   10182   0.      0.
CQUAD4   10150   15      10175   10176   10184   10183   0.      0.
CQUAD4   10151   15      10176   10177   10185   10184   0.      0.
CQUAD4   10152   15      10177   10178   10186   10185   0.      0.
CQUAD4   10153   15      10178   10179   10187   10186   0.      0.
CQUAD4   10154   15      10180   10181   10189   10188   0.      0.
CQUAD4   10155   15      10181   10182   10190   10189   0.      0.
CQUAD4   10156   15      10182   10183   10191   10190   0.      0.
CQUAD4   10157   15      10183   10184   10192   10191   0.      0.
CQUAD4   10158   15      10184   10185   10193   10192   0.      0.
CQUAD4   10159   15      10185   10186   10194   10193   0.      0.
CQUAD4   10160   15      10186   10187   10195   10194   0.      0.
CQUAD4   10161   15      10188   10189   10197   10196   0.      0.
CQUAD4   10162   15      10189   10190   10198   10197   0.      0.
CQUAD4   10163   15      10190   10191   10199   10198   0.      0.
CQUAD4   10164   15      10191   10192   10200   10199   0.      0.
CQUAD4   10165   15      10192   10193   10201   10200   0.      0.
CQUAD4   10166   15      10193   10194   10202   10201   0.      0.
CQUAD4   10167   15      10194   10195   10203   10202   0.      0.
CQUAD4   10168   15      10196   10197   10205   10204   0.      0.
CQUAD4   10169   15      10197   10198   10206   10205   0.      0.
CQUAD4   10170   15      10198   10199   10207   10206   0.      0.
CQUAD4   10171   15      10199   10200   10208   10207   0.      0.
CQUAD4   10172   15      10200   10201   10209   10208   0.      0.
CQUAD4   10173   15      10201   10202   10210   10209   0.      0.
CQUAD4   10174   15      10202   10203   10211   10210   0.      0.
CQUAD4   10175   15      10204   10205   10213   10212   0.      0.
CQUAD4   10176   15      10205   10206   10214   10213   0.      0.
CQUAD4   10177   15      10206   10207   10215   10214   0.      0.
CQUAD4   10178   15      10207   10208   10216   10215   0.      0.
CQUAD4   10179   15      10208   10209   10217   10216   0.      0.
CQUAD4   10180   15      10209   10210   10218   10217   0.      0.
CQUAD4   10181   15      10210   10211   10219   10218   0.      0.
CQUAD4   10182   15      10212   10213   10221   10220   0.      0.
CQUAD4   10183   15      10213   10214   10222   10221   0.      0.
CQUAD4   10184   15      10214   10215   10223   10222   0.      0.
CQUAD4   10185   15      10215   10216   10224   10223   0.      0.
CQUAD4   10186   15      10216   10217   10225   10224   0.      0.
CQUAD4   10187   15      10217   10218   10226   10225   0.      0.
CQUAD4   10188   15      10218   10219   10227   10226   0.      0.
CQUAD4   10189   15      10220   10221   10229   10228   0.      0.
CQUAD4   10190   15      10221   10222   10230   10229   0.      0.
CQUAD4   10191   15      10222   10223   10231   10230   0.      0.
CQUAD4   10192   15      10223   10224   10232   10231   0.      0.
CQUAD4   10193   15      10224   10225   10233   10232   0.      0.
CQUAD4   10194   15      10225   10226   10234   10233   0.      0.
CQUAD4   10195   15      10226   10227   10235   10234   0.      0.
CQUAD4   10196   15      10228   10229   10237   10236   0.      0.
CQUAD4   10197   15      10229   10230   10238   10237   0.      0.
CQUAD4   10198   15      10230   10231   10239   10238   0.      0.
CQUAD4   10199   15      10231   10232   10240   10239   0.      0.
CQUAD4   10200   15      10232   10233   10241   10240   0.      0.
CQUAD4   10201   15      10233   10234   10242   10241   0.      0.
CQUAD4   10202   15      10234   10235   10243   10242   0.      0.
CQUAD4   10203   15      10012   10244   10245   10020   0.      0.
CQUAD4   10204   15      10020   10245   10246   10028   0.      0.
CQUAD4   10205   15      10028   10246   10247   10036   0.      0.
CQUAD4   10206   15      10036   10247   10248   10043   0.      0.
CQUAD4   10207   15      10043   10248   10249   10051   0.      0.
CQUAD4   10208   15      10051   10249   10250   10059   0.      0.
CQUAD4   10209   15      10059   10250   10251   10067   0.      0.
CQUAD4   10210   15      10067   10251   10252   10075   0.      0.
CQUAD4   10211   15      10075   10252   10253   10083   0.      0.
CQUAD4   10212   15      10083   10253   10254   10091   0.      0.
CQUAD4   10213   15      10091   10254   10255   10099   0.      0.
CQUAD4   10214   15      10099   10255   10256   10107   0.      0.
CQUAD4   10215   15      10107   10256   10257   10115   0.      0.
CQUAD4   10216   15      10115   10257   10258   10123   0.      0.
CQUAD4   10217   15      10123   10258   10259   10131   0.      0.
CQUAD4   10218   15      10131   10259   10260   10139   0.      0.
CQUAD4   10219   15      10139   10260   10261   10147   0.      0.
CQUAD4   10220   15      10147   10261   10263   10155   0.      0.
CQUAD4   10221   15      10155   10263   10265   10163   0.      0.
CQUAD4   10222   15      10163   10265   10267   10171   0.      0.
CQUAD4   10223   15      10171   10267   10269   10179   0.      0.
CQUAD4   10224   15      10179   10269   10271   10187   0.      0.
CQUAD4   10225   15      10187   10271   10272   10195   0.      0.
CQUAD4   10226   15      10195   10272   10274   10203   0.      0.
CQUAD4   10227   15      10203   10274   10276   10211   0.      0.
CQUAD4   10228   15      10211   10276   10278   10219   0.      0.
CQUAD4   10229   15      10219   10278   10280   10227   0.      0.
CQUAD4   10230   15      10227   10280   10282   10235   0.      0.
CQUAD4   10231   15      10235   10282   10285   10243   0.      0.
CQUAD4   10232   15      10244   10286   10004   10245   0.      0.
CQUAD4   10233   15      10286   10287   10288   10004   0.      0.
CQUAD4   10234   15      10245   10004   10289   10246   0.      0.
CQUAD4   10235   15      10004   10288   10290   10289   0.      0.
CQUAD4   10236   15      10246   10289   10003   10247   0.      0.
CQUAD4   10237   15      10289   10290   10291   10003   0.      0.
CQUAD4   10238   15      10247   10003   10002   10248   0.      0.
CQUAD4   10239   15      10003   10291   10292   10002   0.      0.
CQUAD4   10240   15      10248   10002   10293   10249   0.      0.
CQUAD4   10241   15      10002   10292   10294   10293   0.      0.
CQUAD4   10242   15      10249   10293   10001   10250   0.      0.
CQUAD4   10243   15      10293   10294   10295   10001   0.      0.
CQUAD4   10244   15      10250   10001   10296   10251   0.      0.
CQUAD4   10245   15      10001   10295   10297   10296   0.      0.
CQUAD4   10246   15      10251   10296   10298   10252   0.      0.
CQUAD4   10247   15      10296   10297   10299   10298   0.      0.
CQUAD4   10248   15      10252   10298   10300   10253   0.      0.
CQUAD4   10249   15      10298   10299   10301   10300   0.      0.
CQUAD4   10250   15      10253   10300   10302   10254   0.      0.
CQUAD4   10251   15      10300   10301   10303   10302   0.      0.
CQUAD4   10252   15      10254   10302   10304   10255   0.      0.
CQUAD4   10253   15      10302   10303   10305   10304   0.      0.
CQUAD4   10254   15      10255   10304   10306   10256   0.      0.
CQUAD4   10255   15      10304   10305   10307   10306   0.      0.
CQUAD4   10256   15      10256   10306   10308   10257   0.      0.
CQUAD4   10257   15      10306   10307   10309   10308   0.      0.
CQUAD4   10258   15      10257   10308   10310   10258   0.      0.
CQUAD4   10259   15      10308   10309   10311   10310   0.      0.
CQUAD4   10260   15      10258   10310   10312   10259   0.      0.
CQUAD4   10261   15      10310   10311   10313   10312   0.      0.
CQUAD4   10262   15      10259   10312   10314   10260   0.      0.
CQUAD4   10263   15      10312   10313   10315   10314   0.      0.
CQUAD4   10264   15      10260   10314   10316   10261   0.      0.
CQUAD4   10265   15      10314   10315   10317   10316   0.      0.
CQUAD4   10266   15      10261   10316   10319   10263   0.      0.
CQUAD4   10267   15      10316   10317   10320   10319   0.      0.
CQUAD4   10268   15      10263   10319   10322   10265   0.      0.
CQUAD4   10269   15      10319   10320   10323   10322   0.      0.
CQUAD4   10270   15      10265   10322   10325   10267   0.      0.
CQUAD4   10271   15      10322   10323   10326   10325   0.      0.
CQUAD4   10272   15      10267   10325   10328   10269   0.      0.
CQUAD4   10273   15      10325   10326   10329   10328   0.      0.
CQUAD4   10274   15      10269   10328   10331   10271   0.      0.
CQUAD4   10275   15      10328   10329   10332   10331   0.      0.
CQUAD4   10276   15      10271   10331   10334   10272   0.      0.
CQUAD4   10277   15      10331   10332   10335   10334   0.      0.
CQUAD4   10278   15      10272   10334   10337   10274   0.      0.
CQUAD4   10279   15      10334   10335   10338   10337   0.      0.
CQUAD4   10280   15      10274   10337   10340   10276   0.      0.
CQUAD4   10281   15      10337   10338   10341   10340   0.      0.
CQUAD4   10282   15      10276   10340   10343   10278   0.      0.
CQUAD4   10283   15      10340   10341   10344   10343   0.      0.
CQUAD4   10284   15      10278   10343   10346   10280   0.      0.
CQUAD4   10285   15      10343   10344   10347   10346   0.      0.
CQUAD4   10286   15      10280   10346   10349   10282   0.      0.
CQUAD4   10287   15      10346   10347   10350   10349   0.      0.
CQUAD4   10288   15      10282   10349   10352   10285   0.      0.
CQUAD4   10289   15      10349   10350   10353   10352   0.      0.
CQUAD4   10290   15      10287   10354   10355   10288   0.      0.
CQUAD4   10291   15      10288   10355   10356   10290   0.      0.
CQUAD4   10292   15      10290   10356   10357   10291   0.      0.
CQUAD4   10293   15      10291   10357   10358   10292   0.      0.
CQUAD4   10294   15      10292   10358   10359   10294   0.      0.
CQUAD4   10295   15      10294   10359   10360   10295   0.      0.
CQUAD4   10296   15      10295   10360   10361   10297   0.      0.
CQUAD4   10297   15      10297   10361   10362   10299   0.      0.
CQUAD4   10298   15      10299   10362   10363   10301   0.      0.
CQUAD4   10299   15      10301   10363   10364   10303   0.      0.
CQUAD4   10300   15      10303   10364   10365   10305   0.      0.
CQUAD4   10301   15      10305   10365   10366   10307   0.      0.
CQUAD4   10302   15      10307   10366   10367   10309   0.      0.
CQUAD4   10303   15      10309   10367   10368   10311   0.      0.
CQUAD4   10304   15      10311   10368   10369   10313   0.      0.
CQUAD4   10305   15      10313   10369   10370   10315   0.      0.
CQUAD4   10306   15      10315   10370   10371   10317   0.      0.
CQUAD4   10307   15      10317   10371   10372   10320   0.      0.
CQUAD4   10308   15      10320   10372   10373   10323   0.      0.
CQUAD4   10309   15      10323   10373   10374   10326   0.      0.
CQUAD4   10310   15      10326   10374   10376   10329   0.      0.
CQUAD4   10311   15      10329   10376   10378   10332   0.      0.
CQUAD4   10312   15      10332   10378   10380   10335   0.      0.
CQUAD4   10313   15      10335   10380   10382   10338   0.      0.
CQUAD4   10314   15      10338   10382   10384   10341   0.      0.
CQUAD4   10315   15      10341   10384   10386   10344   0.      0.
CQUAD4   10316   15      10344   10386   10388   10347   0.      0.
CQUAD4   10317   15      10347   10388   10390   10350   0.      0.
CQUAD4   10318   15      10350   10390   10392   10353   0.      0.
CQUAD4   10319   15      10354   10393   10394   10355   0.      0.
CQUAD4   10320   15      10355   10394   10395   10356   0.      0.
CQUAD4   10321   15      10356   10395   10396   10357   0.      0.
CQUAD4   10322   15      10357   10396   10397   10358   0.      0.
CQUAD4   10323   15      10358   10397   10398   10359   0.      0.
CQUAD4   10324   15      10359   10398   10399   10360   0.      0.
CQUAD4   10325   15      10360   10399   10400   10361   0.      0.
CQUAD4   10326   15      10361   10400   10401   10362   0.      0.
CQUAD4   10327   15      10362   10401   10402   10363   0.      0.
CQUAD4   10328   15      10363   10402   10403   10364   0.      0.
CQUAD4   10329   15      10364   10403   10404   10365   0.      0.
CQUAD4   10330   15      10365   10404   10405   10366   0.      0.
CQUAD4   10331   15      10366   10405   10406   10367   0.      0.
CQUAD4   10332   15      10367   10406   10407   10368   0.      0.
CQUAD4   10333   15      10368   10407   10408   10369   0.      0.
CQUAD4   10334   15      10369   10408   10409   10370   0.      0.
CQUAD4   10335   15      10370   10409   10410   10371   0.      0.
CQUAD4   10336   15      10371   10410   10411   10372   0.      0.
CQUAD4   10337   15      10372   10411   10412   10373   0.      0.
CQUAD4   10338   15      10373   10412   10413   10374   0.      0.
CQUAD4   10339   15      10374   10413   10414   10376   0.      0.
CQUAD4   10340   15      10376   10414   10416   10378   0.      0.
CQUAD4   10341   15      10378   10416   10418   10380   0.      0.
CQUAD4   10342   15      10380   10418   10420   10382   0.      0.
CQUAD4   10343   15      10382   10420   10422   10384   0.      0.
CQUAD4   10344   15      10384   10422   10424   10386   0.      0.
CQUAD4   10345   15      10386   10424   10426   10388   0.      0.
CQUAD4   10346   15      10388   10426   10428   10390   0.      0.
CQUAD4   10347   15      10390   10428   10430   10392   0.      0.
CQUAD4   10348   15      10431   10005   10013   10432   0.      0.
CQUAD4   10349   15      10432   10013   10021   10433   0.      0.
CQUAD4   10350   15      10433   10021   10029   10434   0.      0.
CQUAD4   10351   15      10434   10029   10037   10435   0.      0.
CQUAD4   10352   15      10435   10037   10044   10436   0.      0.
CQUAD4   10353   15      10436   10044   10052   10437   0.      0.
CQUAD4   10354   15      10437   10052   10060   10438   0.      0.
CQUAD4   10355   15      10438   10060   10068   10439   0.      0.
CQUAD4   10356   15      10439   10068   10076   10440   0.      0.
CQUAD4   10357   15      10440   10076   10084   10441   0.      0.
CQUAD4   10358   15      10441   10084   10092   10442   0.      0.
CQUAD4   10359   15      10442   10092   10100   10443   0.      0.
CQUAD4   10360   15      10443   10100   10108   10444   0.      0.
CQUAD4   10361   15      10444   10108   10116   10445   0.      0.
CQUAD4   10362   15      10445   10116   10124   10446   0.      0.
CQUAD4   10363   15      10446   10124   10132   10447   0.      0.
CQUAD4   10364   15      10447   10132   10140   10448   0.      0.
CQUAD4   10365   15      10448   10140   10148   10449   0.      0.
CQUAD4   10366   15      10449   10148   10156   10450   0.      0.
CQUAD4   10367   15      10450   10156   10164   10451   0.      0.
CQUAD4   10368   15      10451   10164   10172   10452   0.      0.
CQUAD4   10369   15      10452   10172   10180   10454   0.      0.
CQUAD4   10370   15      10454   10180   10188   10456   0.      0.
CQUAD4   10371   15      10456   10188   10196   10458   0.      0.
CQUAD4   10372   15      10458   10196   10204   10460   0.      0.
CQUAD4   10373   15      10460   10204   10212   10462   0.      0.
CQUAD4   10374   15      10462   10212   10220   10464   0.      0.
CQUAD4   10375   15      10464   10220   10228   10466   0.      0.
CQUAD4   10376   15      10466   10228   10236   10468   0.      0.
CQUAD4   10377   15      10476   10502   10473   10474   0.      0.
CQUAD4   10378   15      10477   10501   10502   10476   0.      0.
CQUAD4   10379   15      10478   10500   10501   10477   0.      0.
CQUAD4   10380   15      10479   10499   10500   10478   0.      0.
CQUAD4   10381   15      10480   10498   10499   10479   0.      0.
CQUAD4   10382   15      10481   10497   10498   10480   0.      0.
CQUAD4   10383   15      10482   10496   10497   10481   0.      0.
CQUAD4   10384   15      10483   10495   10496   10482   0.      0.
CQUAD4   10385   15      10484   10494   10495   10483   0.      0.
CQUAD4   10386   15      10485   10493   10494   10484   0.      0.
CQUAD4   10387   15      10487   10472   10492   10486   0.      0.
CQUAD4   10388   15      10488   10487   10472   10471   0.      0.
CQUAD4   10389   15      10471   10488   10489   10470   0.      0.
CQUAD4   10390   15      10470   10489   10475   10490   0.      0.
CQUAD4   10391   15      10490   10504   10507   10470   0.      0.
CQUAD4   10392   15      10504   10468   10466   10507   0.      0.
CQUAD4   10393   15      10470   10507   10510   10471   0.      0.
CQUAD4   10394   15      10507   10466   10464   10510   0.      0.
CQUAD4   10395   15      10471   10510   10513   10472   0.      0.
CQUAD4   10396   15      10510   10464   10462   10513   0.      0.
CQUAD4   10397   15      10472   10513   10516   10492   0.      0.
CQUAD4   10398   15      10513   10462   10460   10516   0.      0.
CQUAD4   10399   15      10492   10516   10519   10518   0.      0.
CQUAD4   10400   15      10516   10460   10458   10519   0.      0.
CQUAD4   10401   15      10518   10519   10522   10521   0.      0.
CQUAD4   10402   15      10519   10458   10456   10522   0.      0.
CQUAD4   10403   15      10521   10522   10525   10493   0.      0.
CQUAD4   10404   15      10522   10456   10454   10525   0.      0.
CQUAD4   10405   15      10493   10525   10528   10494   0.      0.
CQUAD4   10406   15      10525   10454   10452   10528   0.      0.
CQUAD4   10407   15      10494   10528   10530   10495   0.      0.
CQUAD4   10408   15      10528   10452   10451   10530   0.      0.
CQUAD4   10409   15      10495   10530   10532   10496   0.      0.
CQUAD4   10410   15      10530   10451   10450   10532   0.      0.
CQUAD4   10411   15      10532   10450   10449   10534   0.      0.
CQUAD4   10412   15      10496   10534   10536   10497   0.      0.
CQUAD4   10413   15      10534   10449   10448   10536   0.      0.
CQUAD4   10414   15      10497   10536   10538   10498   0.      0.
CQUAD4   10415   15      10536   10448   10447   10538   0.      0.
CQUAD4   10416   15      10498   10538   10540   10499   0.      0.
CQUAD4   10417   15      10538   10447   10446   10540   0.      0.
CQUAD4   10418   15      10540   10446   10445   10542   0.      0.
CQUAD4   10419   15      10499   10542   10544   10500   0.      0.
CQUAD4   10420   15      10542   10445   10444   10544   0.      0.
CQUAD4   10421   15      10500   10544   10546   10501   0.      0.
CQUAD4   10422   15      10544   10444   10443   10546   0.      0.
CQUAD4   10423   15      10501   10546   10548   10502   0.      0.
CQUAD4   10424   15      10546   10443   10442   10548   0.      0.
CQUAD4   10425   15      10502   10548   10550   10473   0.      0.
CQUAD4   10426   15      10548   10442   10441   10550   0.      0.
CQUAD4   10427   15      10473   10550   10552   10551   0.      0.
CQUAD4   10428   15      10550   10441   10440   10552   0.      0.
CQUAD4   10429   15      10551   10552   10554   10553   0.      0.
CQUAD4   10430   15      10552   10440   10439   10554   0.      0.
CQUAD4   10431   15      10553   10554   10556   10555   0.      0.
CQUAD4   10432   15      10554   10439   10438   10556   0.      0.
CQUAD4   10433   15      10555   10556   10558   10557   0.      0.
CQUAD4   10434   15      10556   10438   10437   10558   0.      0.
CQUAD4   10435   15      10557   10558   10560   10559   0.      0.
CQUAD4   10436   15      10558   10437   10436   10560   0.      0.
CQUAD4   10437   15      10559   10560   10563   10562   0.      0.
CQUAD4   10438   15      10560   10436   10435   10563   0.      0.
CQUAD4   10439   15      10562   10563   10565   10564   0.      0.
CQUAD4   10440   15      10563   10435   10434   10565   0.      0.
CQUAD4   10441   15      10564   10565   10567   10566   0.      0.
CQUAD4   10442   15      10565   10434   10433   10567   0.      0.
CQUAD4   10443   15      10566   10567   10569   10568   0.      0.
CQUAD4   10444   15      10567   10433   10432   10569   0.      0.
CQUAD4   10445   15      10568   10569   10571   10570   0.      0.
CQUAD4   10446   15      10569   10432   10431   10571   0.      0.
CQUAD4   10447   15      10474   10572   10573   10476   0.      0.
CQUAD4   10448   15      10476   10573   10574   10477   0.      0.
CQUAD4   10449   15      10477   10574   10575   10478   0.      0.
CQUAD4   10450   15      10478   10575   10576   10479   0.      0.
CQUAD4   10451   15      10479   10576   10577   10480   0.      0.
CQUAD4   10452   15      10480   10577   10578   10481   0.      0.
CQUAD4   10453   15      10481   10578   10579   10482   0.      0.
CQUAD4   10454   15      10482   10579   10580   10483   0.      0.
CQUAD4   10455   15      10483   10580   10581   10484   0.      0.
CQUAD4   10456   15      10484   10581   10582   10485   0.      0.
CQUAD4   10457   15      10485   10582   10583   10486   0.      0.
CQUAD4   10458   15      10486   10583   10584   10487   0.      0.
CQUAD4   10459   15      10487   10584   10586   10488   0.      0.
CQUAD4   10460   15      10488   10586   10588   10489   0.      0.
CQUAD4   10461   15      10489   10588   10590   10475   0.      0.
CTRIA3   10462   15      10540   10542   10499   0.      0.
CTRIA3   10463   15      10532   10534   10496   0.      0.
CTRIA3   10464   15      10518   10486   10492   0.      0.
CTRIA3   10465   15      10521   10485   10493   0.      0.
CQUAD4   10466   15      10521   10485   10486   10518   0.      0.
CQUAD4   22000   15      22013   22014   22006   22021   0.      0.
CQUAD4   22001   15      22014   22015   22023   22006   0.      0.
CQUAD4   22002   15      22015   22016   22024   22023   0.      0.
CQUAD4   22003   15      22016   22017   22025   22024   0.      0.
CQUAD4   22004   15      22017   22018   22026   22025   0.      0.
CQUAD4   22005   15      22018   22019   22007   22026   0.      0.
CQUAD4   22006   15      22019   22020   22028   22007   0.      0.
CQUAD4   22007   15      22021   22006   22030   22029   0.      0.
CQUAD4   22008   15      22006   22023   22031   22030   0.      0.
CQUAD4   22009   15      22023   22024   22032   22031   0.      0.
CQUAD4   22010   15      22024   22025   22033   22032   0.      0.
CQUAD4   22011   15      22025   22026   22034   22033   0.      0.
CQUAD4   22012   15      22026   22007   22035   22034   0.      0.
CQUAD4   22013   15      22007   22028   22036   22035   0.      0.
CQUAD4   22014   15      22029   22030   22038   22037   0.      0.
CQUAD4   22015   15      22030   22031   22039   22038   0.      0.
CQUAD4   22016   15      22031   22032   22040   22039   0.      0.
CQUAD4   22017   15      22032   22033   22041   22040   0.      0.
CQUAD4   22018   15      22033   22034   22042   22041   0.      0.
CQUAD4   22019   15      22034   22035   22043   22042   0.      0.
CQUAD4   22020   15      22035   22036   22044   22043   0.      0.
CQUAD4   22021   15      22037   22038   22005   22045   0.      0.
CQUAD4   22022   15      22038   22039   22047   22005   0.      0.
CQUAD4   22023   15      22039   22040   22048   22047   0.      0.
CQUAD4   22024   15      22040   22041   22049   22048   0.      0.
CQUAD4   22025   15      22041   22042   22050   22049   0.      0.
CQUAD4   22026   15      22042   22043   22008   22050   0.      0.
CQUAD4   22027   15      22043   22044   22052   22008   0.      0.
CQUAD4   22028   15      22045   22005   22054   22053   0.      0.
CQUAD4   22029   15      22005   22047   22055   22054   0.      0.
CQUAD4   22030   15      22047   22048   22056   22055   0.      0.
CQUAD4   22031   15      22048   22049   22057   22056   0.      0.
CQUAD4   22032   15      22049   22050   22058   22057   0.      0.
CQUAD4   22033   15      22050   22008   22059   22058   0.      0.
CQUAD4   22034   15      22008   22052   22060   22059   0.      0.
CQUAD4   22035   15      22053   22054   22004   22061   0.      0.
CQUAD4   22036   15      22054   22055   22063   22004   0.      0.
CQUAD4   22037   15      22055   22056   22064   22063   0.      0.
CQUAD4   22038   15      22056   22057   22065   22064   0.      0.
CQUAD4   22039   15      22057   22058   22066   22065   0.      0.
CQUAD4   22040   15      22058   22059   22067   22066   0.      0.
CQUAD4   22041   15      22059   22060   22068   22067   0.      0.
CQUAD4   22042   15      22061   22004   22070   22069   0.      0.
CQUAD4   22043   15      22004   22063   22071   22070   0.      0.
CQUAD4   22044   15      22063   22064   22072   22071   0.      0.
CQUAD4   22045   15      22064   22065   22073   22072   0.      0.
CQUAD4   22046   15      22065   22066   22074   22073   0.      0.
CQUAD4   22047   15      22066   22067   22009   22074   0.      0.
CQUAD4   22048   15      22067   22068   22076   22009   0.      0.
CQUAD4   22049   15      22069   22070   22003   22077   0.      0.
CQUAD4   22050   15      22070   22071   22079   22003   0.      0.
CQUAD4   22051   15      22071   22072   22080   22079   0.      0.
CQUAD4   22052   15      22072   22073   22081   22080   0.      0.
CQUAD4   22053   15      22073   22074   22082   22081   0.      0.
CQUAD4   22054   15      22074   22009   22083   22082   0.      0.
CQUAD4   22055   15      22009   22076   22084   22083   0.      0.
CQUAD4   22056   15      22077   22003   22086   22085   0.      0.
CQUAD4   22057   15      22003   22079   22087   22086   0.      0.
CQUAD4   22058   15      22079   22080   22088   22087   0.      0.
CQUAD4   22059   15      22080   22081   22089   22088   0.      0.
CQUAD4   22060   15      22081   22082   22090   22089   0.      0.
CQUAD4   22061   15      22082   22083   22091   22090   0.      0.
CQUAD4   22062   15      22083   22084   22092   22091   0.      0.
CQUAD4   22063   15      22085   22086   22094   22093   0.      0.
CQUAD4   22064   15      22086   22087   22095   22094   0.      0.
CQUAD4   22065   15      22087   22088   22096   22095   0.      0.
CQUAD4   22066   15      22088   22089   22097   22096   0.      0.
CQUAD4   22067   15      22089   22090   22098   22097   0.      0.
CQUAD4   22068   15      22090   22091   22099   22098   0.      0.
CQUAD4   22069   15      22091   22092   22100   22099   0.      0.
CQUAD4   22070   15      22093   22094   22102   22101   0.      0.
CQUAD4   22071   15      22094   22095   22103   22102   0.      0.
CQUAD4   22072   15      22095   22096   22104   22103   0.      0.
CQUAD4   22073   15      22096   22097   22105   22104   0.      0.
CQUAD4   22074   15      22097   22098   22106   22105   0.      0.
CQUAD4   22075   15      22098   22099   22107   22106   0.      0.
CQUAD4   22076   15      22099   22100   22108   22107   0.      0.
CQUAD4   22077   15      22101   22102   22110   22109   0.      0.
CQUAD4   22078   15      22102   22103   22111   22110   0.      0.
CQUAD4   22079   15      22103   22104   22112   22111   0.      0.
CQUAD4   22080   15      22104   22105   22113   22112   0.      0.
CQUAD4   22081   15      22105   22106   22114   22113   0.      0.
CQUAD4   22082   15      22106   22107   22115   22114   0.      0.
CQUAD4   22083   15      22107   22108   22116   22115   0.      0.
CQUAD4   22084   15      22109   22110   22118   22117   0.      0.
CQUAD4   22085   15      22110   22111   22119   22118   0.      0.
CQUAD4   22086   15      22111   22112   22120   22119   0.      0.
CQUAD4   22087   15      22112   22113   22121   22120   0.      0.
CQUAD4   22088   15      22113   22114   22122   22121   0.      0.
CQUAD4   22089   15      22114   22115   22123   22122   0.      0.
CQUAD4   22090   15      22115   22116   22124   22123   0.      0.
CQUAD4   22091   15      22117   22118   22126   22125   0.      0.
CQUAD4   22092   15      22118   22119   22127   22126   0.      0.
CQUAD4   22093   15      22119   22120   22128   22127   0.      0.
CQUAD4   22094   15      22120   22121   22129   22128   0.      0.
CQUAD4   22095   15      22121   22122   22130   22129   0.      0.
CQUAD4   22096   15      22122   22123   22131   22130   0.      0.
CQUAD4   22097   15      22123   22124   22132   22131   0.      0.
CQUAD4   22098   15      22125   22126   22134   22133   0.      0.
CQUAD4   22099   15      22126   22127   22135   22134   0.      0.
CQUAD4   22100   15      22127   22128   22136   22135   0.      0.
CQUAD4   22101   15      22128   22129   22137   22136   0.      0.
CQUAD4   22102   15      22129   22130   22138   22137   0.      0.
CQUAD4   22103   15      22130   22131   22139   22138   0.      0.
CQUAD4   22104   15      22131   22132   22140   22139   0.      0.
CQUAD4   22105   15      22133   22134   22142   22141   0.      0.
CQUAD4   22106   15      22134   22135   22143   22142   0.      0.
CQUAD4   22107   15      22135   22136   22144   22143   0.      0.
CQUAD4   22108   15      22136   22137   22145   22144   0.      0.
CQUAD4   22109   15      22137   22138   22146   22145   0.      0.
CQUAD4   22110   15      22138   22139   22147   22146   0.      0.
CQUAD4   22111   15      22139   22140   22148   22147   0.      0.
CQUAD4   22112   15      22141   22142   22150   22149   0.      0.
CQUAD4   22113   15      22142   22143   22151   22150   0.      0.
CQUAD4   22114   15      22143   22144   22152   22151   0.      0.
CQUAD4   22115   15      22144   22145   22153   22152   0.      0.
CQUAD4   22116   15      22145   22146   22154   22153   0.      0.
CQUAD4   22117   15      22146   22147   22155   22154   0.      0.
CQUAD4   22118   15      22147   22148   22156   22155   0.      0.
CQUAD4   22119   15      22149   22150   22158   22157   0.      0.
CQUAD4   22120   15      22150   22151   22159   22158   0.      0.
CQUAD4   22121   15      22151   22152   22160   22159   0.      0.
CQUAD4   22122   15      22152   22153   22161   22160   0.      0.
CQUAD4   22123   15      22153   22154   22162   22161   0.      0.
CQUAD4   22124   15      22154   22155   22163   22162   0.      0.
CQUAD4   22125   15      22155   22156   22164   22163   0.      0.
CQUAD4   22126   15      22157   22158   22166   22165   0.      0.
CQUAD4   22127   15      22158   22159   22167   22166   0.      0.
CQUAD4   22128   15      22159   22160   22168   22167   0.      0.
CQUAD4   22129   15      22160   22161   22169   22168   0.      0.
CQUAD4   22130   15      22161   22162   22170   22169   0.      0.
CQUAD4   22131   15      22162   22163   22171   22170   0.      0.
CQUAD4   22132   15      22163   22164   22172   22171   0.      0.
CQUAD4   22133   15      22020   22173   22174   22028   0.      0.
CQUAD4   22134   15      22028   22174   22175   22036   0.      0.
CQUAD4   22135   15      22036   22175   22176   22044   0.      0.
CQUAD4   22136   15      22044   22176   22177   22052   0.      0.
CQUAD4   22137   15      22052   22177   22178   22060   0.      0.
CQUAD4   22138   15      22060   22178   22179   22068   0.      0.
CQUAD4   22139   15      22068   22179   22180   22076   0.      0.
CQUAD4   22140   15      22076   22180   22181   22084   0.      0.
CQUAD4   22141   15      22084   22181   22182   22092   0.      0.
CQUAD4   22142   15      22092   22182   22183   22100   0.      0.
CQUAD4   22143   15      22100   22183   22184   22108   0.      0.
CQUAD4   22144   15      22108   22184   22185   22116   0.      0.
CQUAD4   22145   15      22116   22185   22186   22124   0.      0.
CQUAD4   22146   15      22124   22186   22187   22132   0.      0.
CQUAD4   22147   15      22132   22187   22188   22140   0.      0.
CQUAD4   22148   15      22140   22188   22189   22148   0.      0.
CQUAD4   22149   15      22148   22189   22190   22156   0.      0.
CQUAD4   22150   15      22156   22190   22191   22164   0.      0.
CQUAD4   22151   15      22164   22191   22192   22172   0.      0.
CQUAD4   22152   15      22193   22013   22021   22194   0.      0.
CQUAD4   22153   15      22194   22021   22029   22195   0.      0.
CQUAD4   22154   15      22195   22029   22037   22196   0.      0.
CQUAD4   22155   15      22196   22037   22045   22197   0.      0.
CQUAD4   22156   15      22197   22045   22053   22198   0.      0.
CQUAD4   22157   15      22198   22053   22061   22199   0.      0.
CQUAD4   22158   15      22199   22061   22069   22200   0.      0.
CQUAD4   22159   15      22200   22069   22077   22201   0.      0.
CQUAD4   22160   15      22201   22077   22085   22202   0.      0.
CQUAD4   22161   15      22202   22085   22093   22203   0.      0.
CQUAD4   22162   15      22203   22093   22101   22204   0.      0.
CQUAD4   22163   15      22204   22101   22109   22205   0.      0.
CQUAD4   22164   15      22205   22109   22117   22206   0.      0.
CQUAD4   22165   15      22206   22117   22125   22207   0.      0.
CQUAD4   22166   15      22207   22125   22133   22208   0.      0.
CQUAD4   22167   15      22208   22133   22141   22209   0.      0.
CQUAD4   22168   15      22209   22141   22149   22210   0.      0.
CQUAD4   22169   15      22210   22149   22157   22211   0.      0.
CQUAD4   22170   15      22211   22157   22165   22212   0.      0.
CQUAD4   22171   15      22213   22214   22194   22193   0.      0.
CQUAD4   22172   15      22214   22215   22195   22194   0.      0.
CQUAD4   22173   15      22215   22216   22196   22195   0.      0.
CQUAD4   22174   15      22216   22217   22197   22196   0.      0.
CQUAD4   22175   15      22217   22218   22198   22197   0.      0.
CQUAD4   22176   15      22218   22219   22199   22198   0.      0.
CQUAD4   22177   15      22219   22220   22200   22199   0.      0.
CQUAD4   22178   15      22220   22221   22201   22200   0.      0.
CQUAD4   22179   15      22221   22222   22202   22201   0.      0.
CQUAD4   22180   15      22222   22223   22203   22202   0.      0.
CQUAD4   22181   15      22223   22224   22204   22203   0.      0.
CQUAD4   22182   15      22224   22225   22205   22204   0.      0.
CQUAD4   22183   15      22225   22226   22206   22205   0.      0.
CQUAD4   22184   15      22226   22227   22207   22206   0.      0.
CQUAD4   22185   15      22227   22228   22208   22207   0.      0.
CQUAD4   22186   15      22228   22229   22209   22208   0.      0.
CQUAD4   22187   15      22229   22230   22210   22209   0.      0.
CQUAD4   22188   15      22230   22231   22211   22210   0.      0.
CQUAD4   22189   15      22231   22232   22212   22211   0.      0.
CQUAD4   22190   15      22173   22174   22234   22233   0.      0.
CQUAD4   22191   15      22174   22175   22235   22234   0.      0.
CQUAD4   22192   15      22175   22176   22236   22235   0.      0.
CQUAD4   22193   15      22176   22177   22237   22236   0.      0.
CQUAD4   22194   15      22177   22178   22238   22237   0.      0.
CQUAD4   22195   15      22178   22179   22239   22238   0.      0.
CQUAD4   22196   15      22179   22180   22240   22239   0.      0.
CQUAD4   22197   15      22180   22181   22241   22240   0.      0.
CQUAD4   22198   15      22181   22182   22242   22241   0.      0.
CQUAD4   22199   15      22182   22183   22243   22242   0.      0.
CQUAD4   22200   15      22183   22184   22244   22243   0.      0.
CQUAD4   22201   15      22184   22185   22245   22244   0.      0.
CQUAD4   22202   15      22185   22186   22246   22245   0.      0.
CQUAD4   22203   15      22186   22187   22247   22246   0.      0.
CQUAD4   22204   15      22187   22188   22248   22247   0.      0.
CQUAD4   22205   15      22188   22189   22249   22248   0.      0.
CQUAD4   22206   15      22189   22190   22250   22249   0.      0.
CQUAD4   22207   15      22190   22191   22251   22250   0.      0.
CQUAD4   22208   15      22191   22192   22252   22251   0.      0.
$ Elements and Element Properties for region : conm2
CONM2    4       594     0      3.5-4    0.      0.      0.
         0.      0.      0.      0.      0.      0.
CONM2    5       116     0      8.5-4    0.      0.      0.
         0.      0.      0.      0.      0.      0.
CONM2    24408   1597    0      8.-5     0.      0.      0.
         0.      0.      0.      0.      0.      0.
CONM2    24409   1598    0      1.1-4    0.      0.      0.
         0.      0.      0.      0.      0.      0.
CONM2    24410   1599    0      7.-5     0.      0.      0.
         0.      0.      0.      0.      0.      0.
$ Elements and Element Properties for region : celas2.ca6.cb6
CELAS2   60006  1.+8     27046   6       70000   6       0.      0.
CELAS2   60016  1.+8     26291   6       70001   6       0.      0.
CELAS2   60026  1.+8     25988   6       70002   6       0.      0.
CELAS2   60036  1.+8     27037   6       70003   6       0.      0.
CELAS2   60046  1.+8     26477   6       70004   6       0.      0.
CELAS2   60056  1.+8     26306   6       70005   6       0.      0.
CELAS2   60066  1.+8     25339   6       70006   6       0.      0.
CELAS2   60076  1.+8     25973   6       70007   6       0.      0.
CELAS2   60086  1.+8     25293   6       70008   6       0.      0.
CELAS2   60096  1.+8     26524   6       70009   6       0.      0.
CELAS2   60106  1.+8     25835   6       70010   6       0.      0.
CELAS2   60116  1.+8     26444   6       70011   6       0.      0.
CELAS2   60126  1.+8     25303   6       70012   6       0.      0.
CELAS2   60136  1.+8     26513   6       70013   6       0.      0.
CELAS2   60146  1.+8     25865   6       70014   6       0.      0.
CELAS2   60156  1.+8     26411   6       70015   6       0.      0.
CELAS2   270076 1.+8     290020  6       29002   6       0.      0.
CELAS2   270236 1.+8     200680  6       20068   6       0.      0.
CELAS2   270246 1.+8     200760  6       20076   6       0.      0.
CELAS2   270256 1.+8     200840  6       20084   6       0.      0.
CELAS2   270266 1.+8     200950  6       20095   6       0.      0.
CELAS2   270276 1.+8     300010  6       30001   6       0.      0.
CELAS2   270286 1.+8     300020  6       30002   6       0.      0.
CELAS2   270296 1.+8     300030  6       30003   6       0.      0.
CELAS2   270306 1.+8     300040  6       30004   6       0.      0.
CELAS2   270406 1.+8     300050  6       30005   6       0.      0.
$ Elements and Element Properties for region : celas2.ca5.cb5
CELAS2   60005  1.+8     27046   5       70000   5       0.      0.
CELAS2   60015  1.+8     26291   5       70001   5       0.      0.
CELAS2   60025  1.+8     25988   5       70002   5       0.      0.
CELAS2   60035  1.+8     27037   5       70003   5       0.      0.
CELAS2   60045  1.+8     26477   5       70004   5       0.      0.
CELAS2   60055  1.+8     26306   5       70005   5       0.      0.
CELAS2   60065  1.+8     25339   5       70006   5       0.      0.
CELAS2   60075  1.+8     25973   5       70007   5       0.      0.
CELAS2   60085  1.+8     25293   5       70008   5       0.      0.
CELAS2   60095  1.+8     26524   5       70009   5       0.      0.
CELAS2   60105  1.+8     25835   5       70010   5       0.      0.
CELAS2   60115  1.+8     26444   5       70011   5       0.      0.
CELAS2   60125  1.+8     25303   5       70012   5       0.      0.
CELAS2   60135  1.+8     26513   5       70013   5       0.      0.
CELAS2   60145  1.+8     25865   5       70014   5       0.      0.
CELAS2   60155  1.+8     26411   5       70015   5       0.      0.
CELAS2   270075 1.+8     290020  5       29002   5       0.      0.
CELAS2   270235 1.+8     200680  5       20068   5       0.      0.
CELAS2   270245 1.+8     200760  5       20076   5       0.      0.
CELAS2   270255 1.+8     200840  5       20084   5       0.      0.
CELAS2   270265 1.+8     200950  5       20095   5       0.      0.
CELAS2   270275 1.+8     300010  5       30001   5       0.      0.
CELAS2   270285 1.+8     300020  5       30002   5       0.      0.
CELAS2   270295 1.+8     300030  5       30003   5       0.      0.
CELAS2   270305 1.+8     300040  5       30004   5       0.      0.
CELAS2   270405 1.+8     300050  5       30005   5       0.      0.
CELAS2   970005 1.+7     2330    5       233     5       0.      0.
CELAS2   980005 1.+7     5840    5       584     5       0.      0.
$ Elements and Element Properties for region : celas2.ca4.cb4
CELAS2   60004  1.+8     27046   4       70000   4       0.      0.
CELAS2   60014  500000.  26291   4       70001   4       0.      0.
CELAS2   60024  1.+8     25988   4       70002   4       0.      0.
CELAS2   60034  1.+8     27037   4       70003   4       0.      0.
CELAS2   60044  1.+8     26477   4       70004   4       0.      0.
CELAS2   60054  1.+8     26306   4       70005   4       0.      0.
CELAS2   60064  1.+8     25339   4       70006   4       0.      0.
CELAS2   60074  1.+8     25973   4       70007   4       0.      0.
CELAS2   60084  1.+8     25293   4       70008   4       0.      0.
CELAS2   60094  1.+8     26524   4       70009   4       0.      0.
CELAS2   60104  1.+8     25835   4       70010   4       0.      0.
CELAS2   60114  1.+8     26444   4       70011   4       0.      0.
CELAS2   60124  1.+8     25303   4       70012   4       0.      0.
CELAS2   60134  1.+8     26513   4       70013   4       0.      0.
CELAS2   60144  1.+8     25865   4       70014   4       0.      0.
CELAS2   60154  1.+8     26411   4       70015   4       0.      0.
CELAS2   269724 1.+8     25007   4       519     4       0.      0.
CELAS2   269734 1.+8     25006   4       4525    4       0.      0.
CELAS2   269744 1.+8     25022   4       483     4       0.      0.
CELAS2   269754 1.+8     25008   4       126     4       0.      0.
CELAS2   269764 1.+8     25009   4       125     4       0.      0.
CELAS2   269774 1.+8     25020   4       8237    4       0.      0.
CELAS2   269784 1.+8     25019   4       8058    4       0.      0.
CELAS2   269794 1.+8     25018   4       8057    4       0.      0.
CELAS2   269804 1.+8     25017   4       8056    4       0.      0.
CELAS2   269814 1.+8     25016   4       8055    4       0.      0.
CELAS2   269824 1.+8     25002   4       4535    4       0.      0.
CELAS2   269834 1.+8     33051   4       762     4       0.      0.
CELAS2   269844 1.+8     25005   4       251     4       0.      0.
CELAS2   269854 1.+8     25003   4       6010    4       0.      0.
CELAS2   269864 1.+8     25004   4       319     4       0.      0.
CELAS2   269874 1.+8     28500   4       6282    4       0.      0.
CELAS2   269884 1.+8     25010   4       298     4       0.      0.
CELAS2   269894 1.+8     25011   4       230     4       0.      0.
CELAS2   269904 1.+8     25013   4       163     4       0.      0.
CELAS2   269914 1.+8     25014   4       4543    4       0.      0.
CELAS2   269924 1.+8     25021   4       6216    4       0.      0.
CELAS2   269934 1.+8     25015   4       488     4       0.      0.
CELAS2   269944 1.+8     25012   4       137     4       0.      0.
CELAS2   269954 1.+8     25023   4       6227    4       0.      0.
CELAS2   270074 1.+8     290020  4       29002   4       0.      0.
CELAS2   270234 1.+8     200680  4       20068   4       0.      0.
CELAS2   270244 1.+8     200760  4       20076   4       0.      0.
CELAS2   270254 1.+8     200840  4       20084   4       0.      0.
CELAS2   270264 1.+8     200950  4       20095   4       0.      0.
CELAS2   270274 1.+8     300010  4       30001   4       0.      0.
CELAS2   270284 1.+8     300020  4       30002   4       0.      0.
CELAS2   270294 1.+8     300030  4       30003   4       0.      0.
CELAS2   270304 1.+8     300040  4       30004   4       0.      0.
CELAS2   270404 1.+8     300050  4       30005   4       0.      0.
CELAS2   970004 1.+7     2330    4       233     4       0.      0.
CELAS2   980004 1.+7     5840    4       584     4       0.      0.
$ Elements and Element Properties for region : celas2.ca3.cb3
CELAS2   60003  1.+7     27046   3       70000   3       0.      0.
CELAS2   60013  1.+7     26291   3       70001   3       0.      0.
CELAS2   60023  1.+7     25988   3       70002   3       0.      0.
CELAS2   60033  1.+7     27037   3       70003   3       0.      0.
CELAS2   60043  1.+7     26477   3       70004   3       0.      0.
CELAS2   60053  1.+7     26306   3       70005   3       0.      0.
CELAS2   60063  1.+7     25339   3       70006   3       0.      0.
CELAS2   60073  1.+7     25973   3       70007   3       0.      0.
CELAS2   60083  1.+7     25293   3       70008   3       0.      0.
CELAS2   60093  1.+7     26524   3       70009   3       0.      0.
CELAS2   60103  1.+7     25835   3       70010   3       0.      0.
CELAS2   60113  1.+7     26444   3       70011   3       0.      0.
CELAS2   60123  1.+7     25303   3       70012   3       0.      0.
CELAS2   60133  1.+7     26513   3       70013   3       0.      0.
CELAS2   60143  1.+7     25865   3       70014   3       0.      0.
CELAS2   60153  1.+7     26411   3       70015   3       0.      0.
CELAS2   269253 1.+7     22158   3       10189   3       0.      0.
CELAS2   269263 1.+7     22134   3       10205   3       0.      0.
CELAS2   269273 1.+7     22118   3       10221   3       0.      0.
CELAS2   269283 1.+7     22115   3       10226   3       0.      0.
CELAS2   269293 1.+7     22139   3       10210   3       0.      0.
CELAS2   269303 1.+7     22155   3       10194   3       0.      0.
CELAS2   269313 1.+7     18051   3       10094   3       0.      0.
CELAS2   269323 1.+7     18054   3       10078   3       0.      0.
CELAS2   269333 1.+7     18056   3       10062   3       0.      0.
CELAS2   269343 1.+7     18058   3       10038   3       0.      0.
CELAS2   269353 1.+7     18064   3       4649    3       0.      0.
CELAS2   269363 1.+7     18001   3       4651    3       0.      0.
CELAS2   269373 1.+7     18000   3       4653    3       0.      0.
CELAS2   269383 1.+7     18080   3       4647    3       0.      0.
CELAS2   269393 1.+7     14001   3       12210   3       0.      0.
CELAS2   269403 1.+7     14002   3       12211   3       0.      0.
CELAS2   269413 1.+7     14003   3       12212   3       0.      0.
CELAS2   269423 1.+7     14004   3       12213   3       0.      0.
CELAS2   269433 1.+7     14007   3       8063    3       0.      0.
CELAS2   269443 1.+7     14019   3       8062    3       0.      0.
CELAS2   269453 1.+7     14024   3       8064    3       0.      0.
CELAS2   269463 1.+7     14027   3       8065    3       0.      0.
CELAS2   269473 1.+7     14504   3       10001   3       0.      0.
CELAS2   269483 1.+7     14503   3       10002   3       0.      0.
CELAS2   269493 1.+7     14502   3       10003   3       0.      0.
CELAS2   269503 1.+7     14501   3       10004   3       0.      0.
CELAS2   269513 1.+7     14507   3       8472    3       0.      0.
CELAS2   269523 1.+7     14517   3       8066    3       0.      0.
CELAS2   269533 1.+7     14522   3       8060    3       0.      0.
CELAS2   269543 1.+7     14535   3       8059    3       0.      0.
CELAS2   269553 1.+7     24318   3       6272    3       0.      0.
CELAS2   269563 1.+7     24314   3       6156    3       0.      0.
CELAS2   269573 1.+7     24310   3       6263    3       0.      0.
CELAS2   269583 1.+7     24385   3       6275    3       0.      0.
CELAS2   269593 1.+7     24384   3       6274    3       0.      0.
CELAS2   269603 1.+7     24387   3       6196    3       0.      0.
CELAS2   269613 1.+7     24388   3       6273    3       0.      0.
CELAS2   269623 1.+7     24359   3       12036   3       0.      0.
CELAS2   269633 1.+7     24363   3       32888   3       0.      0.
CELAS2   269643 1.+7     24367   3       12038   3       0.      0.
CELAS2   269653 1.+7     24371   3       12039   3       0.      0.
CELAS2   269663 1.+7     20029   3       4566    3       0.      0.
CELAS2   269673 1.+7     20023   3       4563    3       0.      0.
CELAS2   269683 1.+7     20041   3       4567    3       0.      0.
CELAS2   269693 1.+7     20035   3       4564    3       0.      0.
CELAS2   269703 1.+7     20047   3       4565    3       0.      0.
CELAS2   269713 1.+7     20062   3       4568    3       0.      0.
CELAS2   269723 1.+7     25007   3       519     3       0.      0.
CELAS2   269733 1.+7     25006   3       4525    3       0.      0.
CELAS2   269743 1.+7     25022   3       483     3       0.      0.
CELAS2   269753 1.+7     25008   3       126     3       0.      0.
CELAS2   269763 1.+7     25009   3       125     3       0.      0.
CELAS2   269773 1.+7     25020   3       8237    3       0.      0.
CELAS2   269783 1.+7     25019   3       8058    3       0.      0.
CELAS2   269793 1.+7     25018   3       8057    3       0.      0.
CELAS2   269803 1.+7     25017   3       8056    3       0.      0.
CELAS2   269813 1.+7     25016   3       8055    3       0.      0.
CELAS2   269823 1.+7     25002   3       4535    3       0.      0.
CELAS2   269833 1.+7     33051   3       762     3       0.      0.
CELAS2   269843 1.+7     25005   3       251     3       0.      0.
CELAS2   269853 1.+7     25003   3       6010    3       0.      0.
CELAS2   269863 1.+7     25004   3       319     3       0.      0.
CELAS2   269873 1.+7     28500   3       6282    3       0.      0.
CELAS2   269883 1.+7     25010   3       298     3       0.      0.
CELAS2   269893 1.+7     25011   3       230     3       0.      0.
CELAS2   269903 1.+7     25013   3       163     3       0.      0.
CELAS2   269913 1.+7     25014   3       4543    3       0.      0.
CELAS2   269923 1.+7     25021   3       6216    3       0.      0.
CELAS2   269933 1.+7     25015   3       488     3       0.      0.
CELAS2   269943 1.+7     25012   3       137     3       0.      0.
CELAS2   269953 1.+7     25023   3       6227    3       0.      0.
CELAS2   269983 1.+7     220030  3       22003   3       0.      0.
CELAS2   269993 1.+7     220040  3       22004   3       0.      0.
CELAS2   270003 1.+7     220050  3       22005   3       0.      0.
CELAS2   270013 1.+7     220060  3       22006   3       0.      0.
CELAS2   270023 1.+7     220070  3       22007   3       0.      0.
CELAS2   270033 1.+7     220080  3       22008   3       0.      0.
CELAS2   270043 1.+7     220090  3       22009   3       0.      0.
CELAS2   270053 1.+7     244270  3       24427   3       0.      0.
CELAS2   270063 1.+7     244290  3       24429   3       0.      0.
CELAS2   270073 1.+7     290020  3       29002   3       0.      0.
CELAS2   270083 1.+7     16083   3       10022   3       0.      0.
CELAS2   270093 1.+7     16104   3       16003   3       0.      0.
CELAS2   270103 1.+7     16124   3       16002   3       0.      0.
CELAS2   270113 1.+7     16144   3       16001   3       0.      0.
CELAS2   270123 1.+7     16164   3       16000   3       0.      0.
CELAS2   270133 1.+7     16549   3       10561   3       0.      0.
CELAS2   270143 1.+7     16550   3       10061   3       0.      0.
CELAS2   270153 1.+7     16551   3       10077   3       0.      0.
CELAS2   270163 1.+7     16407   3       29001   3       0.      0.
CELAS2   270173 1.+7     61340   3       6134    3       0.      0.
CELAS2   270183 1.+7     61360   3       6136    3       0.      0.
CELAS2   270193 1.+7     61440   3       6144    3       0.      0.
CELAS2   270203 1.+7     120560  3       12056   3       0.      0.
CELAS2   270213 1.+7     120620  3       12062   3       0.      0.
CELAS2   270223 1.+7     121280  3       12128   3       0.      0.
CELAS2   270233 1.+7     200680  3       20068   3       0.      0.
CELAS2   270243 1.+7     200760  3       20076   3       0.      0.
CELAS2   270253 1.+7     200840  3       20084   3       0.      0.
CELAS2   270263 1.+7     200950  3       20095   3       0.      0.
CELAS2   270273 1.+7     300010  3       30001   3       0.      0.
CELAS2   270283 1.+7     300020  3       30002   3       0.      0.
CELAS2   270293 1.+7     300030  3       30003   3       0.      0.
CELAS2   270303 1.+7     300040  3       30004   3       0.      0.
CELAS2   270403 1.+7     300050  3       30005   3       0.      0.
CELAS2   940003 1.+7     94000   3       94      3       0.      0.
CELAS2   950003 1.+7     1090    3       109     3       0.      0.
CELAS2   960003 1.+7     3970    3       397     3       0.      0.
CELAS2   970003 1.+7     2330    3       233     3       0.      0.
CELAS2   980003 1.+7     5840    3       584     3       0.      0.
CELAS2   990263 1.+7     240260  3       24026   3       0.      0.
CELAS2   990273 1.+7     240310  3       24031   3       0.      0.
CELAS2   990283 1.+7     240670  3       24067   3       0.      0.
CELAS2   990343 1.+7     240340  3       24034   3       0.      0.
CELAS2   990353 1.+7     241170  3       24117   3       0.      0.
CELAS2   990403 1.+7     241390  3       24139   3       0.      0.
CELAS2   990413 1.+7     242030  3       24203   3       0.      0.
CELAS2   990423 1.+7     242140  3       24214   3       0.      0.
$ Elements and Element Properties for region : celas2.ca2.cb2
CELAS2   60002  1.+7     27046   2       70000   2       0.      0.
CELAS2   60012  1.+7     26291   2       70001   2       0.      0.
CELAS2   60022  1.+7     25988   2       70002   2       0.      0.
CELAS2   60032  1.+7     27037   2       70003   2       0.      0.
CELAS2   60042  1.+7     26477   2       70004   2       0.      0.
CELAS2   60052  1.+7     26306   2       70005   2       0.      0.
CELAS2   60062  1.+7     25339   2       70006   2       0.      0.
CELAS2   60072  1.+7     25973   2       70007   2       0.      0.
CELAS2   60082  1.+7     25293   2       70008   2       0.      0.
CELAS2   60092  1.+7     26524   2       70009   2       0.      0.
CELAS2   60102  1.+7     25835   2       70010   2       0.      0.
CELAS2   60112  1.+7     26444   2       70011   2       0.      0.
CELAS2   60122  1.+7     25303   2       70012   2       0.      0.
CELAS2   60132  1.+7     26513   2       70013   2       0.      0.
CELAS2   60142  1.+7     25865   2       70014   2       0.      0.
CELAS2   60152  1.+7     26411   2       70015   2       0.      0.
CELAS2   269252 1.+7     22158   2       10189   2       0.      0.
CELAS2   269262 1.+7     22134   2       10205   2       0.      0.
CELAS2   269272 1.+7     22118   2       10221   2       0.      0.
CELAS2   269282 1.+7     22115   2       10226   2       0.      0.
CELAS2   269292 1.+7     22139   2       10210   2       0.      0.
CELAS2   269302 1.+7     22155   2       10194   2       0.      0.
CELAS2   269312 1.+7     18051   2       10094   2       0.      0.
CELAS2   269322 1.+7     18054   2       10078   2       0.      0.
CELAS2   269332 1.+7     18056   2       10062   2       0.      0.
CELAS2   269342 1.+7     18058   2       10038   2       0.      0.
CELAS2   269352 1.+7     18064   2       4649    2       0.      0.
CELAS2   269362 1.+7     18001   2       4651    2       0.      0.
CELAS2   269372 1.+7     18000   2       4653    2       0.      0.
CELAS2   269382 1.+7     18080   2       4647    2       0.      0.
CELAS2   269392 1.+7     14001   2       12210   2       0.      0.
CELAS2   269402 1.+7     14002   2       12211   2       0.      0.
CELAS2   269412 1.+7     14003   2       12212   2       0.      0.
CELAS2   269422 1.+7     14004   2       12213   2       0.      0.
CELAS2   269432 1.+7     14007   2       8063    2       0.      0.
CELAS2   269442 1.+7     14019   2       8062    2       0.      0.
CELAS2   269452 1.+7     14024   2       8064    2       0.      0.
CELAS2   269462 1.+7     14027   2       8065    2       0.      0.
CELAS2   269472 1.+7     14504   2       10001   2       0.      0.
CELAS2   269482 1.+7     14503   2       10002   2       0.      0.
CELAS2   269492 1.+7     14502   2       10003   2       0.      0.
CELAS2   269502 1.+7     14501   2       10004   2       0.      0.
CELAS2   269512 1.+7     14507   2       8472    2       0.      0.
CELAS2   269522 1.+7     14517   2       8066    2       0.      0.
CELAS2   269532 1.+7     14522   2       8060    2       0.      0.
CELAS2   269542 1.+7     14535   2       8059    2       0.      0.
CELAS2   269552 1.+7     24318   2       6272    2       0.      0.
CELAS2   269562 1.+7     24314   2       6156    2       0.      0.
CELAS2   269572 1.+7     24310   2       6263    2       0.      0.
CELAS2   269582 1.+7     24385   2       6275    2       0.      0.
CELAS2   269592 1.+7     24384   2       6274    2       0.      0.
CELAS2   269602 1.+7     24387   2       6196    2       0.      0.
CELAS2   269612 1.+7     24388   2       6273    2       0.      0.
CELAS2   269622 1.+7     24359   2       12036   2       0.      0.
CELAS2   269632 1.+7     24363   2       32888   2       0.      0.
CELAS2   269642 1.+7     24367   2       12038   2       0.      0.
CELAS2   269652 1.+7     24371   2       12039   2       0.      0.
CELAS2   269662 1.+7     20029   2       4566    2       0.      0.
CELAS2   269672 1.+7     20023   2       4563    2       0.      0.
CELAS2   269682 1.+7     20041   2       4567    2       0.      0.
CELAS2   269692 1.+7     20035   2       4564    2       0.      0.
CELAS2   269702 1.+7     20047   2       4565    2       0.      0.
CELAS2   269712 1.+7     20062   2       4568    2       0.      0.
CELAS2   269722 1.+7     25007   2       519     2       0.      0.
CELAS2   269732 1.+7     25006   2       4525    2       0.      0.
CELAS2   269742 1.+7     25022   2       483     2       0.      0.
CELAS2   269752 1.+7     25008   2       126     2       0.      0.
CELAS2   269762 1.+7     25009   2       125     2       0.      0.
CELAS2   269772 1.+7     25020   2       8237    2       0.      0.
CELAS2   269782 1.+7     25019   2       8058    2       0.      0.
CELAS2   269792 1.+7     25018   2       8057    2       0.      0.
CELAS2   269802 1.+7     25017   2       8056    2       0.      0.
CELAS2   269812 1.+7     25016   2       8055    2       0.      0.
CELAS2   269822 1.+7     25002   2       4535    2       0.      0.
CELAS2   269832 1.+7     33051   2       762     2       0.      0.
CELAS2   269842 1.+7     25005   2       251     2       0.      0.
CELAS2   269852 1.+7     25003   2       6010    2       0.      0.
CELAS2   269862 1.+7     25004   2       319     2       0.      0.
CELAS2   269872 1.+7     28500   2       6282    2       0.      0.
CELAS2   269882 1.+7     25010   2       298     2       0.      0.
CELAS2   269892 1.+7     25011   2       230     2       0.      0.
CELAS2   269902 1.+7     25013   2       163     2       0.      0.
CELAS2   269912 1.+7     25014   2       4543    2       0.      0.
CELAS2   269922 1.+7     25021   2       6216    2       0.      0.
CELAS2   269932 1.+7     25015   2       488     2       0.      0.
CELAS2   269942 1.+7     25012   2       137     2       0.      0.
CELAS2   269952 1.+7     25023   2       6227    2       0.      0.
CELAS2   269982 1.+7     220030  2       22003   2       0.      0.
CELAS2   269992 1.+7     220040  2       22004   2       0.      0.
CELAS2   270002 1.+7     220050  2       22005   2       0.      0.
CELAS2   270012 1.+7     220060  2       22006   2       0.      0.
CELAS2   270022 1.+7     220070  2       22007   2       0.      0.
CELAS2   270032 1.+7     220080  2       22008   2       0.      0.
CELAS2   270042 1.+7     220090  2       22009   2       0.      0.
CELAS2   270052 1.+7     244270  2       24427   2       0.      0.
CELAS2   270062 1.+7     244290  2       24429   2       0.      0.
CELAS2   270072 1.+7     290020  2       29002   2       0.      0.
CELAS2   270082 1.+7     16083   2       10022   2       0.      0.
CELAS2   270092 1.+7     16104   2       16003   2       0.      0.
CELAS2   270102 1.+7     16124   2       16002   2       0.      0.
CELAS2   270112 1.+7     16144   2       16001   2       0.      0.
CELAS2   270122 1.+7     16164   2       16000   2       0.      0.
CELAS2   270132 1.+7     16549   2       10561   2       0.      0.
CELAS2   270142 1.+7     16550   2       10061   2       0.      0.
CELAS2   270152 1.+7     16551   2       10077   2       0.      0.
CELAS2   270162 1.+7     16407   2       29001   2       0.      0.
CELAS2   270172 1.+7     61340   2       6134    2       0.      0.
CELAS2   270182 1.+7     61360   2       6136    2       0.      0.
CELAS2   270192 1.+7     61440   2       6144    2       0.      0.
CELAS2   270202 1.+7     120560  2       12056   2       0.      0.
CELAS2   270212 1.+7     120620  2       12062   2       0.      0.
CELAS2   270222 1.+7     121280  2       12128   2       0.      0.
CELAS2   270232 1.+7     200680  2       20068   2       0.      0.
CELAS2   270242 1.+7     200760  2       20076   2       0.      0.
CELAS2   270252 1.+7     200840  2       20084   2       0.      0.
CELAS2   270262 1.+7     200950  2       20095   2       0.      0.
CELAS2   270272 1.+7     300010  2       30001   2       0.      0.
CELAS2   270282 1.+7     300020  2       30002   2       0.      0.
CELAS2   270292 1.+7     300030  2       30003   2       0.      0.
CELAS2   270302 1.+7     300040  2       30004   2       0.      0.
CELAS2   270402 1.+7     300050  2       30005   2       0.      0.
CELAS2   940002 1.+7     94000   2       94      2       0.      0.
CELAS2   950002 1.+7     1090    2       109     2       0.      0.
CELAS2   960002 1.+7     3970    2       397     2       0.      0.
CELAS2   970002 1.+7     2330    2       233     2       0.      0.
CELAS2   980002 1.+7     5840    2       584     2       0.      0.
CELAS2   990262 1.+7     240260  2       24026   2       0.      0.
CELAS2   990272 1.+7     240310  2       24031   2       0.      0.
CELAS2   990282 1.+7     240670  2       24067   2       0.      0.
CELAS2   990342 1.+7     240340  2       24034   2       0.      0.
CELAS2   990352 1.+7     241170  2       24117   2       0.      0.
CELAS2   990402 1.+7     241390  2       24139   2       0.      0.
CELAS2   990412 1.+7     242030  2       24203   2       0.      0.
CELAS2   990422 1.+7     242140  2       24214   2       0.      0.
$ Elements and Element Properties for region : celas2.ca1.cb1
CELAS2   60001  1.+7     27046   1       70000   1       0.      0.
CELAS2   60011  1.+7     26291   1       70001   1       0.      0.
CELAS2   60021  1.+7     25988   1       70002   1       0.      0.
CELAS2   60031  1.+7     27037   1       70003   1       0.      0.
CELAS2   60041  1.+7     26477   1       70004   1       0.      0.
CELAS2   60051  1.+7     26306   1       70005   1       0.      0.
CELAS2   60061  1.+7     25339   1       70006   1       0.      0.
CELAS2   60071  1.+7     25973   1       70007   1       0.      0.
CELAS2   60081  1.+7     25293   1       70008   1       0.      0.
CELAS2   60091  1.+7     26524   1       70009   1       0.      0.
CELAS2   60101  1.+7     25835   1       70010   1       0.      0.
CELAS2   60111  1.+7     26444   1       70011   1       0.      0.
CELAS2   60121  1.+7     25303   1       70012   1       0.      0.
CELAS2   60131  1.+7     26513   1       70013   1       0.      0.
CELAS2   60141  1.+7     25865   1       70014   1       0.      0.
CELAS2   60151  1.+7     26411   1       70015   1       0.      0.
CELAS2   269251 1.+7     22158   1       10189   1       0.      0.
CELAS2   269261 1.+7     22134   1       10205   1       0.      0.
CELAS2   269271 1.+7     22118   1       10221   1       0.      0.
CELAS2   269281 1.+7     22115   1       10226   1       0.      0.
CELAS2   269291 1.+7     22139   1       10210   1       0.      0.
CELAS2   269301 1.+7     22155   1       10194   1       0.      0.
CELAS2   269311 1.+7     18051   1       10094   1       0.      0.
CELAS2   269321 1.+7     18054   1       10078   1       0.      0.
CELAS2   269331 1.+7     18056   1       10062   1       0.      0.
CELAS2   269341 1.+7     18058   1       10038   1       0.      0.
CELAS2   269351 1.+7     18064   1       4649    1       0.      0.
CELAS2   269361 1.+7     18001   1       4651    1       0.      0.
CELAS2   269371 1.+7     18000   1       4653    1       0.      0.
CELAS2   269381 1.+7     18080   1       4647    1       0.      0.
CELAS2   269391 1.+7     14001   1       12210   1       0.      0.
CELAS2   269401 1.+7     14002   1       12211   1       0.      0.
CELAS2   269411 1.+7     14003   1       12212   1       0.      0.
CELAS2   269421 1.+7     14004   1       12213   1       0.      0.
CELAS2   269431 1.+7     14007   1       8063    1       0.      0.
CELAS2   269441 1.+7     14019   1       8062    1       0.      0.
CELAS2   269451 1.+7     14024   1       8064    1       0.      0.
CELAS2   269461 1.+7     14027   1       8065    1       0.      0.
CELAS2   269471 1.+7     14504   1       10001   1       0.      0.
CELAS2   269481 1.+7     14503   1       10002   1       0.      0.
CELAS2   269491 1.+7     14502   1       10003   1       0.      0.
CELAS2   269501 1.+7     14501   1       10004   1       0.      0.
CELAS2   269511 1.+7     14507   1       8472    1       0.      0.
CELAS2   269521 1.+7     14517   1       8066    1       0.      0.
CELAS2   269531 1.+7     14522   1       8060    1       0.      0.
CELAS2   269541 1.+7     14535   1       8059    1       0.      0.
CELAS2   269551 1.+7     24318   1       6272    1       0.      0.
CELAS2   269561 1.+7     24314   1       6156    1       0.      0.
CELAS2   269571 1.+7     24310   1       6263    1       0.      0.
CELAS2   269581 1.+7     24385   1       6275    1       0.      0.
CELAS2   269591 1.+7     24384   1       6274    1       0.      0.
CELAS2   269601 1.+7     24387   1       6196    1       0.      0.
CELAS2   269611 1.+7     24388   1       6273    1       0.      0.
CELAS2   269621 1.+7     24359   1       12036   1       0.      0.
CELAS2   269631 1.+7     24363   1       32888   1       0.      0.
CELAS2   269641 1.+7     24367   1       12038   1       0.      0.
CELAS2   269651 1.+7     24371   1       12039   1       0.      0.
CELAS2   269661 1.+7     20029   1       4566    1       0.      0.
CELAS2   269671 1.+7     20023   1       4563    1       0.      0.
CELAS2   269681 1.+7     20041   1       4567    1       0.      0.
CELAS2   269691 1.+7     20035   1       4564    1       0.      0.
CELAS2   269701 1.+7     20047   1       4565    1       0.      0.
CELAS2   269711 1.+7     20062   1       4568    1       0.      0.
CELAS2   269721 1.+7     25007   1       519     1       0.      0.
CELAS2   269731 1.+7     25006   1       4525    1       0.      0.
CELAS2   269741 1.+7     25022   1       483     1       0.      0.
CELAS2   269751 1.+7     25008   1       126     1       0.      0.
CELAS2   269761 1.+7     25009   1       125     1       0.      0.
CELAS2   269771 1.+7     25020   1       8237    1       0.      0.
CELAS2   269781 1.+7     25019   1       8058    1       0.      0.
CELAS2   269791 1.+7     25018   1       8057    1       0.      0.
CELAS2   269801 1.+7     25017   1       8056    1       0.      0.
CELAS2   269811 1.+7     25016   1       8055    1       0.      0.
CELAS2   269821 1.+7     25002   1       4535    1       0.      0.
CELAS2   269831 1.+7     33051   1       762     1       0.      0.
CELAS2   269841 1.+7     25005   1       251     1       0.      0.
CELAS2   269851 1.+7     25003   1       6010    1       0.      0.
CELAS2   269861 1.+7     25004   1       319     1       0.      0.
CELAS2   269871 1.+7     28500   1       6282    1       0.      0.
CELAS2   269881 1.+7     25010   1       298     1       0.      0.
CELAS2   269891 1.+7     25011   1       230     1       0.      0.
CELAS2   269901 1.+7     25013   1       163     1       0.      0.
CELAS2   269911 1.+7     25014   1       4543    1       0.      0.
CELAS2   269921 1.+7     25021   1       6216    1       0.      0.
CELAS2   269931 1.+7     25015   1       488     1       0.      0.
CELAS2   269941 1.+7     25012   1       137     1       0.      0.
CELAS2   269951 1.+7     25023   1       6227    1       0.      0.
CELAS2   269981 1.+7     220030  1       22003   1       0.      0.
CELAS2   269991 1.+7     220040  1       22004   1       0.      0.
CELAS2   270001 1.+7     220050  1       22005   1       0.      0.
CELAS2   270011 1.+7     220060  1       22006   1       0.      0.
CELAS2   270021 1.+7     220070  1       22007   1       0.      0.
CELAS2   270031 1.+7     220080  1       22008   1       0.      0.
CELAS2   270041 1.+7     220090  1       22009   1       0.      0.
CELAS2   270051 1.+7     244270  1       24427   1       0.      0.
CELAS2   270061 1.+7     244290  1       24429   1       0.      0.
CELAS2   270071 1.+7     290020  1       29002   1       0.      0.
CELAS2   270081 1.+7     16083   1       10022   1       0.      0.
CELAS2   270091 1.+7     16104   1       16003   1       0.      0.
CELAS2   270101 1.+7     16124   1       16002   1       0.      0.
CELAS2   270111 1.+7     16144   1       16001   1       0.      0.
CELAS2   270121 1.+7     16164   1       16000   1       0.      0.
CELAS2   270131 1.+7     16549   1       10561   1       0.      0.
CELAS2   270141 1.+7     16550   1       10061   1       0.      0.
CELAS2   270151 1.+7     16551   1       10077   1       0.      0.
CELAS2   270161 1.+7     16407   1       29001   1       0.      0.
CELAS2   270171 1.+7     61340   1       6134    1       0.      0.
CELAS2   270181 1.+7     61360   1       6136    1       0.      0.
CELAS2   270191 1.+7     61440   1       6144    1       0.      0.
CELAS2   270201 1.+7     120560  1       12056   1       0.      0.
CELAS2   270211 1.+7     120620  1       12062   1       0.      0.
CELAS2   270221 1.+7     121280  1       12128   1       0.      0.
CELAS2   270231 1.+7     200680  1       20068   1       0.      0.
CELAS2   270241 1.+7     200760  1       20076   1       0.      0.
CELAS2   270251 1.+7     200840  1       20084   1       0.      0.
CELAS2   270261 1.+7     200950  1       20095   1       0.      0.
CELAS2   270271 1.+7     300010  1       30001   1       0.      0.
CELAS2   270281 1.+7     300020  1       30002   1       0.      0.
CELAS2   270291 1.+7     300030  1       30003   1       0.      0.
CELAS2   270301 1.+7     300040  1       30004   1       0.      0.
CELAS2   270401 1.+7     300050  1       30005   1       0.      0.
CELAS2   940001 1.+7     94000   1       94      1       0.      0.
CELAS2   950001 1.+7     1090    1       109     1       0.      0.
CELAS2   960001 1.+7     3970    1       397     1       0.      0.
CELAS2   970001 1.+7     2330    1       233     1       0.      0.
CELAS2   980001 1.+7     5840    1       584     1       0.      0.
CELAS2   990261 1.+7     240260  1       24026   1       0.      0.
CELAS2   990271 1.+7     240310  1       24031   1       0.      0.
CELAS2   990281 1.+7     240670  1       24067   1       0.      0.
CELAS2   990341 1.+7     240340  1       24034   1       0.      0.
CELAS2   990351 1.+7     241170  1       24117   1       0.      0.
CELAS2   990401 1.+7     241390  1       24139   1       0.      0.
CELAS2   990411 1.+7     242030  1       24203   1       0.      0.
CELAS2   990421 1.+7     242140  1       24214   1       0.      0.
$ Referenced Material Records
$ Material Record : mat1.1
$ Description of Material :
MAT1     1      65000.  25000.  .3      2.78-9
$ Material Record : mat1.2
$ Description of Material :
MAT1     2      200000. 76923.1 .3      2.6-8
$ Material Record : mat1.3
$ Description of Material :
MAT1     3      72400.  27846.2 .3      2.78-9
$ Multipoint Constraints of the Entire Model
RBE2     26994   116     123     1090    3970    94000
RBE2     26995   594     12345   2330    5840
RBE2     26996   1597    123456  240260  240310  240670
RBE2     26997   1598    123456  240340  241170
RBE2     26998   1599    123456  241390  242030  242140
RBE2     26999   30001   123     61340   61360   61440
RBE3     27000           3009    123456 1.       123     70000   70001
         70002   70003
RBE3     27001           3008    123456 1.       123     70004   70005
         70006   70007
RBE3     27002           3001    123456 1.       123     70008   70009
         70010   70011
RBE3     27003           3002    123456 1.       123     70012   70013
         70014   70015
RBE2     27500   30002   123     120560  120620  121280
RBE2     27501   30003   123456  200680  200760  200840  200950
RBE2     27502   30004   123     220030  220040  220050  220060  220070
         220080  220090
RBE2     27503   30005   123     244270  244290
RBE2     27504   30000   123456  290020  300010  300020  300030  300040
         300050
$ Nodes of the Entire Model
GRID     1              2964.19 -1072.75-1226.6
GRID     2              3075.11 -1072.75-1226.6
GRID     3              2944.55 -1088.55-1226.6
GRID     4              2964.19 -1105.14-1226.6
GRID     5              2925.77 -1105.92-1226.6
GRID     6              2889.09 -1105.14-1226.6
GRID     7              3000.01 -1105.14-1226.6
GRID     8              3019.65 -1088.55-1226.6
GRID     9              3039.29 -1105.14-1226.6
GRID     10             3075.11 -1105.14-1226.6
GRID     11             3150.21 -1105.14-1226.6
GRID     12             3114.39 -1105.14-1226.6
GRID     13             3189.49 -1105.14-1226.6
GRID     14             3169.85 -1088.55-1226.6
GRID     15             3225.31 -1105.14-1226.6
GRID     16             3207.4  -1113.09-1226.6
GRID     17             3426.73 -1105.92-1226.6
GRID     18             3464.27 -1105.92-1226.6
GRID     19             3445.5  -1113.09-1226.6
GRID     20             3132.3  -1113.09-1226.6
GRID     21             3057.2  -1113.09-1226.6
GRID     22             2982.1  -1113.09-1226.6
GRID     23             2907.   -1113.09-1226.6
GRID     24             2957.96 -1088.95-1226.6
GRID     25             2944.55 -1071.97-1226.6
GRID     26             3000.01 -1072.75-1226.6
GRID     27             3006.24 -1088.95-1226.6
GRID     28             3019.65 -1071.97-1226.6
GRID     29             2963.31 -1116.94-1226.6
GRID     30             2982.08 -1116.94-1226.6
GRID     31             2944.53 -1116.94-1226.6
GRID     32             2944.55 -1105.92-1226.6
GRID     33             3000.85 -1116.94-1226.6
GRID     34             3019.63 -1116.94-1226.6
GRID     35             3019.65 -1105.92-1226.6
GRID     36             2888.23 -1071.97-1226.6
GRID     37             2882.86 -1088.95-1226.6
GRID     38             2925.77 -1071.97-1226.6
GRID     39             2931.13 -1088.25-1226.6
GRID     40             2889.13 -1117.33-1226.6
GRID     41             2906.98 -1116.94-1226.6
GRID     42             2925.75 -1116.94-1226.6
GRID     43             3039.29 -1072.75-1226.6
GRID     44             3033.06 -1088.61-1226.6
GRID     45             3094.75 -1088.55-1226.6
GRID     46             3081.34 -1088.61-1226.6
GRID     47             3094.75 -1071.97-1226.6
GRID     48             3038.41 -1116.94-1226.6
GRID     49             3057.18 -1116.94-1226.6
GRID     50             3075.95 -1116.94-1226.6
GRID     51             3094.73 -1116.94-1226.6
GRID     52             3094.75 -1105.92-1226.6
GRID     53             3114.39 -1072.75-1226.6
GRID     54             3108.16 -1088.95-1226.6
GRID     55             3150.21 -1072.75-1226.6
GRID     56             3156.44 -1088.61-1226.6
GRID     57             3169.85 -1071.97-1226.6
GRID     58             3115.83 -1116.94-1226.6
GRID     59             3132.28 -1116.94-1226.6
GRID     60             3151.05 -1116.94-1226.6
GRID     61             3169.83 -1116.94-1226.6
GRID     62             3169.85 -1105.92-1226.6
GRID     63             3189.49 -1072.75-1226.6
GRID     64             3183.26 -1088.95-1226.6
GRID     65             3225.31 -1072.75-1226.6
GRID     66             3244.95 -1088.55-1226.6
GRID     67             3231.54 -1088.61-1226.6
GRID     68             3244.95 -1071.97-1226.6
GRID     69             3188.61 -1116.94-1226.6
GRID     70             3207.38 -1116.94-1226.6
GRID     71             3226.15 -1116.94-1226.6
GRID     72             3244.95 -1114.94-1226.6
GRID     73             3244.95 -1105.92-1226.6
GRID     74             3427.59 -1072.75-1226.6
GRID     75             3407.95 -1088.55-1226.6
GRID     76             3421.36 -1088.61-1226.6
GRID     77             3407.95 -1071.97-1226.6
GRID     78             3483.05 -1088.55-1226.6
GRID     79             3469.64 -1088.61-1226.6
GRID     80             3426.72 -1115.94-1226.6
GRID     81             3445.49 -1115.94-1226.6
GRID     82             3407.94 -1115.94-1226.6
GRID     83             3407.95 -1105.92-1226.6
GRID     84             3464.26 -1115.94-1226.6
GRID     85             3483.04 -1115.94-1226.6
GRID     86             3483.05 -1105.92-1226.6
GRID     87             3252.83 -1071.97-1226.6
GRID     88             3252.83 -1105.92-1226.6
GRID     89             3252.83 -1114.94-1226.6
GRID     90             3267.8  -1071.97-1226.6
GRID     91             3282.76 -1071.97-1226.6
GRID     92             3297.72 -1071.97-1226.6
GRID     93             3312.71 -1075.97-1226.6
GRID     94             3323.5  -1072.  -1226.6
GRID     95             3342.61 -1075.97-1226.6
GRID     96             3357.57 -1071.97-1226.6
GRID     97             3372.54 -1071.97-1226.6
GRID     98             3387.5  -1071.97-1226.6
GRID     99             3267.8  -1105.92-1226.6
GRID     100            3387.5  -1105.92-1226.6
GRID     101            3267.8  -1113.78-1226.6
GRID     102            3267.8  -1121.64-1226.6
GRID     103            3282.76 -1105.92-1226.6
GRID     104            3282.76 -1113.78-1226.6
GRID     105            3282.76 -1121.64-1226.6
GRID     106            3297.72 -1101.92-1226.6
GRID     107            3297.72 -1113.78-1226.6
GRID     108            3297.72 -1121.64-1226.6
GRID     109            3310.   -1097.94-1226.6
GRID     110            3312.69 -1113.78-1226.6
GRID     111            3312.69 -1121.64-1226.6
GRID     112            3327.65 -1101.92-1226.6
GRID     113            3327.65 -1113.78-1226.6
GRID     114            3327.65 -1121.64-1226.6
GRID     115            3342.61 -1105.92-1226.6
GRID     116            3340.25 -1114.44-1226.6
GRID     117            3342.61 -1121.64-1226.6
GRID     118            3357.57 -1105.92-1226.6
GRID     119            3357.57 -1113.78-1226.6
GRID     120            3357.57 -1121.64-1226.6
GRID     121            3372.54 -1105.92-1226.6
GRID     122            3372.53 -1114.78-1226.6
GRID     123            3372.54 -1121.64-1226.6
GRID     124            3387.49 -1114.78-1226.6
GRID     125            3387.5  -1121.64-1226.6
GRID     126            3252.83 -1121.64-1226.6
GRID     127            3390.21 -1168.38-1226.6
GRID     128            3038.43 -1253.62-1226.6
GRID     129            3057.2  -1253.62-1226.6
GRID     130            3040.29 -1241.98-1226.6
GRID     131            3019.65 -1223.62-1226.6
GRID     132            3057.2  -1247.34-1226.6
GRID     133            3083.64 -1266.19-1226.6
GRID     134            3057.2  -1266.81-1226.6
GRID     135            3084.29 -1259.24-1226.6
GRID     136            3057.2  -1259.82-1226.6
GRID     137            3084.   -1254.6 -1226.6
GRID     138            3038.43 -1260.62-1226.6
GRID     139            3038.43 -1266.81-1226.6
GRID     140            3094.75 -1266.81-1226.6
GRID     141            3094.78 -1256.81-1226.6
GRID     142            3094.76 -1248.81-1226.6
GRID     143            3019.65 -1266.81-1226.6
GRID     144            3019.65 -1260.62-1226.6
GRID     145            3019.65 -1253.62-1226.6
GRID     146            3027.86 -1218.  -1226.6
GRID     147            3019.65 -1244.6 -1226.6
GRID     148            3074.11 -1241.98-1226.6
GRID     149            3094.75 -1216.81-1226.6
GRID     150            3086.54 -1218.  -1226.6
GRID     151            3094.66 -1234.81-1226.6
GRID     152            3038.43 -1180.  -1226.6
GRID     153            3057.2  -1180.  -1226.6
GRID     154            3034.5  -1199.42-1226.6
GRID     155            3057.2  -1188.66-1226.6
GRID     156            3019.65 -1180.  -1226.6
GRID     157            3019.65 -1202.64-1226.6
GRID     158            3075.97 -1180.  -1226.6
GRID     159            3079.9  -1199.42-1226.6
GRID     160            3094.75 -1180.  -1226.6
GRID     161            3094.75 -1195.83-1226.6
GRID     162            2963.33 -1253.62-1226.6
GRID     163            2984.   -1254.6 -1226.6
GRID     164            2965.19 -1241.98-1226.6
GRID     165            2944.55 -1223.62-1226.6
GRID     166            2982.1  -1247.34-1226.6
GRID     167            3000.87 -1266.81-1226.6
GRID     168            2982.1  -1266.81-1226.6
GRID     169            3000.87 -1260.62-1226.6
GRID     170            2983.5  -1260.22-1226.6
GRID     171            3000.87 -1253.62-1226.6
GRID     172            2964.25 -1260.65-1226.6
GRID     173            2963.33 -1266.81-1226.6
GRID     174            2944.55 -1266.81-1226.6
GRID     175            2945.69 -1260.62-1226.6
GRID     176            2944.55 -1253.62-1226.6
GRID     177            2952.76 -1218.  -1226.6
GRID     178            2944.55 -1244.6 -1226.6
GRID     179            2999.01 -1241.98-1226.6
GRID     180            3011.44 -1218.  -1226.6
GRID     181            2963.33 -1180.  -1226.6
GRID     182            2983.1  -1182.  -1226.6
GRID     183            2959.4  -1199.42-1226.6
GRID     184            2982.1  -1188.66-1226.6
GRID     185            2944.55 -1180.  -1226.6
GRID     186            2944.55 -1202.64-1226.6
GRID     187            3000.87 -1180.  -1226.6
GRID     188            3004.8  -1199.42-1226.6
GRID     189            2888.23 -1253.62-1226.6
GRID     190            2907.   -1253.62-1226.6
GRID     191            2890.09 -1241.98-1226.6
GRID     192            2907.   -1247.34-1226.6
GRID     193            2925.77 -1266.81-1226.6
GRID     194            2907.   -1266.81-1226.6
GRID     195            2927.56 -1260.62-1226.6
GRID     196            2908.05 -1260.58-1226.6
GRID     197            2925.77 -1253.62-1226.6
GRID     198            2889.53 -1260.6 -1226.6
GRID     199            2888.23 -1266.81-1226.6
GRID     200            2877.66 -1218.  -1226.6
GRID     201            2923.91 -1241.98-1226.6
GRID     202            2936.34 -1218.  -1226.6
GRID     203            2888.23 -1180.  -1226.6
GRID     204            2907.   -1180.  -1226.6
GRID     205            2884.3  -1199.42-1226.6
GRID     206            2907.   -1188.66-1226.6
GRID     207            2925.77 -1180.  -1226.6
GRID     208            2929.71 -1199.42-1226.6
GRID     209            3203.71 -1250.81-1226.6
GRID     210            3222.48 -1250.81-1226.6
GRID     211            3202.31 -1239.29-1226.6
GRID     212            3184.95 -1216.81-1226.6
GRID     213            3222.5  -1247.34-1226.6
GRID     214            3241.27 -1286.81-1226.6
GRID     215            3222.5  -1286.81-1226.6
GRID     216            3241.27 -1276.81-1226.6
GRID     217            3222.5  -1276.81-1226.6
GRID     218            3241.27 -1266.81-1226.6
GRID     219            3222.5  -1266.81-1226.6
GRID     220            3241.38 -1255.88-1226.6
GRID     221            3222.5  -1256.81-1226.6
GRID     222            3242.25 -1250.81-1226.6
GRID     223            3203.73 -1256.81-1226.6
GRID     224            3203.73 -1266.81-1226.6
GRID     225            3203.76 -1272.81-1226.6
GRID     226            3203.73 -1286.81-1226.6
GRID     227            3260.05 -1286.81-1226.6
GRID     228            3260.05 -1276.81-1226.6
GRID     229            3255.81 -1267.8 -1226.6
GRID     230            3253.   -1254.6 -1226.6
GRID     231            3254.8  -1248.83-1226.6
GRID     232            3181.95 -1286.71-1226.6
GRID     233            3178.   -1272.5 -1226.6
GRID     234            3178.95 -1266.62-1226.6
GRID     235            3184.95 -1256.81-1226.6
GRID     236            3184.95 -1248.81-1226.6
GRID     237            3193.19 -1216.76-1226.6
GRID     238            3184.95 -1231.16-1226.6
GRID     239            3242.69 -1239.29-1226.6
GRID     240            3260.05 -1216.81-1226.6
GRID     241            3251.82 -1216.76-1226.6
GRID     242            3260.05 -1237.79-1226.6
GRID     243            3203.73 -1180.  -1226.6
GRID     244            3222.5  -1180.  -1226.6
GRID     245            3203.54 -1195.61-1226.6
GRID     246            3222.5  -1188.66-1226.6
GRID     247            3185.5  -1180.  -1226.6
GRID     248            3185.4  -1198.41-1226.6
GRID     249            3241.27 -1180.  -1226.6
GRID     250            3241.46 -1195.61-1226.6
GRID     251            3252.83 -1176.8 -1226.
GRID     252            3260.05 -1195.83-1226.6
GRID     253            3277.15 -1249.42-1226.6
GRID     254            3296.83 -1250.34-1226.6
GRID     255            3276.65 -1239.29-1226.6
GRID     256            3296.83 -1247.34-1226.6
GRID     257            3315.6  -1286.81-1226.6
GRID     258            3296.83 -1286.81-1226.6
GRID     259            3315.6  -1276.81-1226.6
GRID     260            3296.83 -1276.81-1226.6
GRID     261            3315.6  -1266.81-1226.6
GRID     262            3296.83 -1266.81-1226.6
GRID     263            3315.6  -1256.81-1226.6
GRID     264            3296.83 -1256.81-1226.6
GRID     265            3316.52 -1250.2 -1226.6
GRID     266            3278.07 -1256.81-1226.6
GRID     267            3278.07 -1266.81-1226.6
GRID     268            3278.07 -1276.81-1226.6
GRID     269            3278.07 -1286.81-1226.6
GRID     270            3334.38 -1286.81-1226.6
GRID     271            3334.38 -1276.81-1226.6
GRID     272            3334.38 -1266.81-1226.6
GRID     273            3334.38 -1256.81-1226.6
GRID     274            3334.38 -1248.81-1226.6
GRID     275            3267.49 -1218.  -1226.6
GRID     276            3317.02 -1239.29-1226.6
GRID     277            3334.38 -1216.81-1226.6
GRID     278            3326.18 -1218.  -1226.6
GRID     279            3334.38 -1237.79-1226.6
GRID     280            3278.07 -1180.  -1226.6
GRID     281            3296.83 -1180.  -1226.6
GRID     282            3278.07 -1195.83-1226.6
GRID     283            3296.83 -1188.66-1226.6
GRID     284            3315.6  -1180.  -1226.6
GRID     285            3315.79 -1195.61-1226.6
GRID     286            3332.38 -1180.  -1226.6
GRID     287            3334.38 -1195.83-1226.6
GRID     288            3352.4  -1250.81-1226.6
GRID     289            3371.17 -1250.81-1226.6
GRID     290            3350.98 -1239.3 -1226.6
GRID     291            3371.17 -1247.34-1226.6
GRID     292            3389.94 -1286.81-1226.6
GRID     293            3371.17 -1286.81-1226.6
GRID     294            3389.94 -1276.81-1226.6
GRID     295            3371.17 -1276.81-1226.6
GRID     296            3387.63 -1266.6 -1226.6
GRID     297            3371.17 -1266.81-1226.6
GRID     298            3387.5  -1254.6 -1226.6
GRID     299            3371.17 -1256.81-1226.6
GRID     300            3389.26 -1249.06-1226.6
GRID     301            3352.4  -1256.81-1226.6
GRID     302            3352.4  -1266.81-1226.6
GRID     303            3352.4  -1276.81-1226.6
GRID     304            3352.4  -1286.81-1226.6
GRID     305            3408.72 -1286.81-1226.6
GRID     306            3408.72 -1276.81-1226.6
GRID     307            3408.72 -1266.81-1226.6
GRID     308            3408.72 -1256.81-1226.6
GRID     309            3408.72 -1248.81-1226.6
GRID     310            3341.83 -1218.  -1226.6
GRID     311            3391.36 -1239.29-1226.6
GRID     312            3408.72 -1216.81-1226.6
GRID     313            3400.48 -1216.76-1226.6
GRID     314            3408.72 -1237.79-1226.6
GRID     315            3350.4  -1180.  -1226.6
GRID     316            3369.17 -1180.  -1226.6
GRID     317            3352.21 -1195.6 -1226.6
GRID     318            3371.17 -1188.66-1226.6
GRID     319            3387.5  -1178.3 -1226.6
GRID     320            3390.13 -1195.61-1226.6
GRID     321            3408.72 -1180.  -1226.6
GRID     322            3408.72 -1195.83-1226.6
GRID     323            3426.73 -1250.81-1226.6
GRID     324            3445.5  -1250.81-1226.6
GRID     325            3425.31 -1239.29-1226.6
GRID     326            3445.5  -1246.03-1226.6
GRID     327            3464.27 -1288.  -1226.6
GRID     328            3445.5  -1286.81-1226.6
GRID     329            3464.27 -1276.  -1226.6
GRID     330            3445.5  -1276.81-1226.6
GRID     331            3464.27 -1266.  -1226.6
GRID     332            3445.5  -1266.81-1226.6
GRID     333            3464.27 -1256.  -1226.6
GRID     334            3445.5  -1256.81-1226.6
GRID     335            3466.95 -1245.35-1226.6
GRID     336            3426.73 -1256.81-1226.6
GRID     337            3426.73 -1266.81-1226.6
GRID     338            3426.73 -1276.81-1226.6
GRID     339            3426.73 -1286.81-1226.6
GRID     340            3483.05 -1266.  -1226.6
GRID     341            3483.05 -1256.  -1226.6
GRID     342            3483.05 -1244.  -1226.6
GRID     343            3416.19 -1216.76-1226.6
GRID     344            3469.63 -1234.69-1226.6
GRID     345            3483.05 -1218.  -1226.6
GRID     346            3474.84 -1218.  -1226.6
GRID     347            3483.05 -1230.98-1226.6
GRID     348            3426.73 -1180.  -1226.6
GRID     349            3445.5  -1180.  -1226.6
GRID     350            3426.54 -1195.61-1226.6
GRID     351            3445.5  -1188.66-1226.6
GRID     352            3464.27 -1180.  -1226.6
GRID     353            3461.45 -1193.37-1226.6
GRID     354            3483.05 -1180.  -1226.6
GRID     355            3483.05 -1193.37-1226.6
GRID     356            3426.76 -1121.78-1226.6
GRID     357            3445.5  -1121.78-1226.6
GRID     358            3464.31 -1121.67-1226.6
GRID     359            3483.06 -1121.65-1226.6
GRID     360            3408.17 -1127.86-1226.6
GRID     361            3426.89 -1127.86-1226.6
GRID     362            3445.61 -1127.86-1226.6
GRID     363            3464.33 -1127.86-1226.6
GRID     364            3483.05 -1127.86-1226.6
GRID     365            3408.28 -1138.29-1226.6
GRID     366            3426.97 -1138.29-1226.6
GRID     367            3445.67 -1138.29-1226.6
GRID     368            3464.36 -1138.29-1226.6
GRID     369            3483.05 -1138.29-1226.6
GRID     370            3408.39 -1148.71-1226.6
GRID     371            3427.06 -1148.71-1226.6
GRID     372            3445.72 -1148.71-1226.6
GRID     373            3464.39 -1148.71-1226.6
GRID     374            3483.05 -1148.71-1226.6
GRID     375            3408.5  -1159.14-1226.6
GRID     376            3427.14 -1159.14-1226.6
GRID     377            3445.78 -1159.14-1226.6
GRID     378            3464.41 -1159.14-1226.6
GRID     379            3483.05 -1159.14-1226.6
GRID     380            3408.61 -1169.57-1226.6
GRID     381            3427.22 -1169.57-1226.6
GRID     382            3445.83 -1169.57-1226.6
GRID     383            3464.44 -1169.57-1226.6
GRID     384            3483.05 -1169.57-1226.6
GRID     385            3407.95 -1121.64-1226.6
GRID     386            3392.63 -1128.19-1226.6
GRID     387            3392.68 -1136.08-1226.6
GRID     388            3392.8  -1147.27-1226.6
GRID     389            3392.91 -1158.46-1226.6
GRID     390            3377.11 -1128.51-1226.6
GRID     391            3377.14 -1136.11-1226.6
GRID     392            3377.24 -1147.31-1226.6
GRID     393            3377.35 -1158.51-1226.6
GRID     394            3377.46 -1169.72-1226.6
GRID     395            3357.59 -1128.85-1226.6
GRID     396            3357.6  -1136.14-1226.6
GRID     397            3357.69 -1147.36-1226.6
GRID     398            3357.   -1157.  -1226.6
GRID     399            3357.88 -1169.8 -1226.6
GRID     400            3344.07 -1129.17-1226.6
GRID     401            3344.06 -1136.17-1226.6
GRID     402            3344.14 -1147.4 -1226.6
GRID     403            3344.22 -1158.63-1226.6
GRID     404            3346.3  -1169.86-1226.6
GRID     405            3330.55 -1129.5 -1226.6
GRID     406            3330.52 -1136.19-1226.6
GRID     407            3330.59 -1147.44-1226.6
GRID     408            3330.66 -1158.69-1226.6
GRID     409            3330.72 -1169.94-1226.6
GRID     410            3315.04 -1129.83-1226.6
GRID     411            3314.99 -1136.22-1226.6
GRID     412            3315.04 -1147.49-1226.6
GRID     413            3315.09 -1158.75-1226.6
GRID     414            3315.14 -1170.01-1226.6
GRID     415            3299.52 -1130.15-1226.6
GRID     416            3299.45 -1136.25-1226.6
GRID     417            3299.49 -1147.53-1226.6
GRID     418            3299.53 -1158.81-1226.6
GRID     419            3299.57 -1170.08-1226.6
GRID     420            3284.   -1130.48-1226.6
GRID     421            3283.91 -1136.28-1226.6
GRID     422            3283.94 -1147.57-1226.6
GRID     423            3283.96 -1158.86-1226.6
GRID     424            3283.99 -1170.15-1226.6
GRID     425            3268.48 -1130.81-1226.6
GRID     426            3268.37 -1136.31-1226.6
GRID     427            3268.39 -1147.62-1226.6
GRID     428            3268.4  -1158.92-1226.6
GRID     429            3264.41 -1170.23-1226.6
GRID     430            3252.96 -1131.14-1226.6
GRID     431            3252.83 -1136.34-1226.6
GRID     432            3252.83 -1147.66-1226.6
GRID     433            3252.83 -1158.98-1226.6
GRID     435            3252.83 -1088.55-1226.6
GRID     436            3267.8  -1088.55-1226.6
GRID     437            3282.76 -1088.55-1226.6
GRID     438            3297.72 -1088.55-1226.6
GRID     439            3312.69 -1088.55-1226.6
GRID     440            3327.65 -1088.55-1226.6
GRID     441            3342.61 -1088.55-1226.6
GRID     442            3357.57 -1088.55-1226.6
GRID     443            3372.54 -1088.55-1226.6
GRID     444            3387.5  -1088.55-1226.6
GRID     445            3244.32 -1121.17-1226.6
GRID     446            3243.72 -1131.33-1226.6
GRID     447            3243.11 -1143.5 -1226.6
GRID     448            3242.5  -1155.67-1226.6
GRID     449            3241.88 -1167.83-1226.6
GRID     450            3225.55 -1123.17-1226.6
GRID     451            3225.01 -1131.33-1226.6
GRID     452            3224.43 -1143.5 -1226.6
GRID     453            3223.84 -1155.67-1226.6
GRID     454            3223.26 -1167.83-1226.6
GRID     455            3206.81 -1123.17-1226.6
GRID     456            3206.3  -1131.33-1226.6
GRID     457            3205.74 -1143.5 -1226.6
GRID     458            3205.19 -1155.67-1226.6
GRID     459            3204.64 -1167.83-1226.6
GRID     460            3188.06 -1123.17-1226.6
GRID     461            3187.58 -1131.33-1226.6
GRID     462            3187.06 -1143.5 -1226.6
GRID     463            3186.54 -1155.67-1226.6
GRID     464            3186.02 -1167.83-1226.6
GRID     465            3169.32 -1123.17-1226.6
GRID     466            3168.87 -1131.33-1226.6
GRID     467            3168.38 -1143.5 -1226.6
GRID     468            3167.89 -1155.67-1226.6
GRID     469            3167.4  -1167.83-1226.6
GRID     470            3167.35 -1180.  -1226.6
GRID     471            3150.57 -1123.17-1226.6
GRID     472            3150.15 -1131.33-1226.6
GRID     473            3149.69 -1143.5 -1226.6
GRID     474            3149.23 -1155.67-1226.6
GRID     475            3148.77 -1167.83-1226.6
GRID     476            3149.2  -1180.  -1226.6
GRID     477            3131.83 -1123.17-1226.6
GRID     478            3131.44 -1131.33-1226.6
GRID     479            3131.01 -1143.5 -1226.6
GRID     480            3130.58 -1155.67-1226.6
GRID     481            3130.15 -1167.83-1226.6
GRID     482            3131.05 -1180.  -1226.6
GRID     483            3118.15 -1121.7 -1226.6
GRID     484            3118.17 -1131.33-1226.6
GRID     485            3118.17 -1143.5 -1226.6
GRID     486            3118.17 -1155.67-1226.6
GRID     487            3118.17 -1170.3 -1226.6
GRID     488            3118.17 -1178.06-1226.6
GRID     489            3094.34 -1123.17-1226.6
GRID     490            3094.01 -1131.33-1226.6
GRID     491            3093.65 -1143.5 -1226.6
GRID     492            3093.28 -1155.67-1226.6
GRID     493            3092.91 -1167.83-1226.6
GRID     494            3075.6  -1123.17-1226.6
GRID     495            3075.3  -1131.33-1226.6
GRID     496            3074.96 -1143.5 -1226.6
GRID     497            3074.63 -1155.67-1226.6
GRID     498            3074.29 -1167.83-1226.6
GRID     499            3056.85 -1123.17-1226.6
GRID     500            3056.59 -1131.33-1226.6
GRID     501            3056.28 -1143.5 -1226.6
GRID     502            3055.97 -1155.67-1226.6
GRID     503            3055.67 -1167.83-1226.6
GRID     504            3038.11 -1123.17-1226.6
GRID     505            3037.87 -1131.33-1226.6
GRID     506            3037.6  -1143.5 -1226.6
GRID     507            3037.32 -1155.67-1226.6
GRID     508            3037.04 -1167.83-1226.6
GRID     509            3019.36 -1123.17-1226.6
GRID     510            3019.16 -1131.33-1226.6
GRID     511            3018.91 -1143.5 -1226.6
GRID     512            3018.67 -1155.67-1226.6
GRID     513            3018.42 -1167.83-1226.6
GRID     514            3000.62 -1123.17-1226.6
GRID     515            3000.45 -1131.33-1226.6
GRID     516            3000.23 -1143.5 -1226.6
GRID     517            3000.02 -1155.67-1226.6
GRID     518            2999.8  -1170.83-1226.6
GRID     519            2983.48 -1121.7 -1226.6
GRID     520            2981.73 -1131.33-1226.6
GRID     521            2981.55 -1143.5 -1226.6
GRID     522            2981.36 -1155.67-1226.6
GRID     523            2964.22 -1123.55-1226.6
GRID     524            2963.02 -1131.33-1226.6
GRID     525            2962.87 -1143.5 -1226.6
GRID     526            2962.71 -1155.67-1226.6
GRID     527            2962.56 -1170.83-1226.6
GRID     528            2945.47 -1123.55-1226.6
GRID     529            2944.31 -1131.33-1226.6
GRID     530            2944.18 -1143.5 -1226.6
GRID     531            2944.06 -1155.67-1226.6
GRID     532            2943.94 -1167.83-1226.6
GRID     533            2926.57 -1123.72-1226.6
GRID     534            2925.59 -1131.33-1226.6
GRID     535            2925.5  -1143.5 -1226.6
GRID     536            2925.41 -1155.67-1226.6
GRID     537            2925.32 -1167.83-1226.6
GRID     538            2907.14 -1123.29-1226.6
GRID     539            2906.88 -1131.33-1226.6
GRID     540            2906.82 -1143.5 -1226.6
GRID     541            2906.76 -1155.67-1226.6
GRID     542            2906.69 -1167.83-1226.6
GRID     543            2889.16 -1123.69-1226.6
GRID     544            2888.16 -1131.33-1226.6
GRID     545            2888.13 -1143.5 -1226.6
GRID     546            2888.1  -1155.67-1226.6
GRID     547            2888.07 -1167.83-1226.6
GRID     548            3080.59 -1286.74-1226.6
GRID     549            3057.48 -1285.17-1226.6
GRID     550            3039.02 -1283.91-1226.6
GRID     551            3094.49 -1287.68-1226.6
GRID     552            3020.56 -1282.66-1226.6
GRID     553            3001.48 -1281.36-1226.6
GRID     554            2983.07 -1280.11-1226.6
GRID     555            2964.69 -1278.86-1226.6
GRID     556            2946.31 -1277.62-1226.6
GRID     557            2927.96 -1276.37-1226.6
GRID     558            2909.63 -1275.12-1226.6
GRID     559            2891.33 -1273.88-1226.6
GRID     560            3239.84 -1297.56-1226.6
GRID     561            3221.62 -1296.32-1226.6
GRID     562            3202.99 -1295.06-1226.6
GRID     563            3258.51 -1298.83-1226.6
GRID     564            3184.36 -1293.79-1226.6
GRID     565            3313.53 -1302.57-1226.6
GRID     566            3294.96 -1301.31-1226.6
GRID     567            3276.37 -1300.04-1226.6
GRID     568            3332.1  -1303.83-1226.6
GRID     569            3387.66 -1307.61-1226.6
GRID     570            3369.12 -1306.35-1226.6
GRID     571            3349.91 -1305.04-1226.6
GRID     572            3406.2  -1308.87-1226.6
GRID     573            3461.01 -1312.59-1226.6
GRID     574            3442.51 -1311.34-1226.6
GRID     575            3423.99 -1310.08-1226.6
GRID     576            3112.83 -1197.89-1226.6
GRID     577            3130.97 -1198.02-1226.6
GRID     578            3149.12 -1198.15-1226.6
GRID     579            3167.26 -1198.28-1226.6
GRID     580            3112.73 -1214.5 -1226.6
GRID     581            3130.86 -1214.83-1226.6
GRID     582            3149.   -1215.15-1226.6
GRID     583            3167.13 -1215.48-1226.6
GRID     584            3109.58 -1235.48-1226.6
GRID     585            3130.75 -1230.03-1226.6
GRID     586            3148.88 -1230.49-1226.6
GRID     587            3167.   -1230.95-1226.6
GRID     588            3110.92 -1244.38-1226.6
GRID     589            3130.68 -1243.24-1226.6
GRID     590            3145.8  -1243.73-1226.6
GRID     591            3166.92 -1246.42-1226.6
GRID     592            3112.49 -1251.72-1226.6
GRID     593            3130.6  -1252.45-1226.6
GRID     594            3143.79 -1252.81-1226.6
GRID     595            3166.84 -1253.99-1226.6
GRID     596            3112.46 -1258.8 -1226.6
GRID     597            3130.57 -1259.65-1226.6
GRID     598            3145.68 -1260.41-1226.6
GRID     599            3166.79 -1261.36-1226.6
GRID     600            3112.39 -1269.87-1226.6
GRID     601            3130.49 -1270.86-1226.6
GRID     602            3148.6  -1271.84-1226.6
GRID     603            3166.7  -1272.83-1226.6
GRID     604            3112.32 -1280.95-1226.6
GRID     605            3130.42 -1282.07-1226.6
GRID     606            3148.52 -1283.18-1226.6
GRID     607            3166.61 -1284.3 -1226.6
GRID     608            3112.42 -1288.9 -1226.6
GRID     609            3130.37 -1290.12-1226.6
GRID     610            3148.35 -1291.34-1226.6
GRID     611            3166.34 -1292.57-1226.6
GRID     612            3483.05 -1288.  -1226.6
GRID     613            3483.05 -1276.  -1226.6
GRID     614            3479.33 -1313.84-1226.6
GRID     615            2982.1  -1064.8 -1226.6
GRID     616            3057.2  -1064.8 -1226.6
GRID     617            2907.   -1064.8 -1226.6
GRID     618            3132.3  -1064.8 -1226.6
GRID     619            3207.4  -1064.8 -1226.6
GRID     620            3445.5  -1064.8 -1226.6
GRID     621            3463.41 -1072.75-1226.6
GRID     622            2873.71 -1272.68-1226.6
GRID     624            3221.62 -1296.32-1219.2
GRID     625            3202.99 -1295.06-1219.2
GRID     626            3239.85 -1297.56-1219.2
GRID     627            3258.51 -1298.83-1219.2
GRID     628            3276.37 -1300.05-1219.2
GRID     629            3294.96 -1301.31-1219.2
GRID     630            3313.53 -1302.57-1219.2
GRID     631            3332.11 -1303.83-1219.2
GRID     632            3349.89 -1305.04-1219.2
GRID     633            3369.09 -1306.35-1219.2
GRID     634            3387.65 -1307.61-1219.2
GRID     635            3406.18 -1308.87-1219.2
GRID     636            3423.97 -1310.08-1219.2
GRID     637            3442.49 -1311.33-1219.2
GRID     638            3460.95 -1312.59-1219.2
GRID     639            3479.33 -1313.84-1219.2
GRID     640            2909.63 -1275.12-1219.2
GRID     641            2891.32 -1273.88-1219.2
GRID     642            2927.95 -1276.37-1219.2
GRID     643            2946.31 -1277.61-1219.2
GRID     644            2964.69 -1278.86-1219.2
GRID     645            2983.07 -1280.11-1219.2
GRID     646            3001.48 -1281.36-1219.2
GRID     647            3020.25 -1282.64-1219.2
GRID     648            3039.01 -1283.91-1219.2
GRID     649            3057.48 -1285.17-1219.2
GRID     650            3080.59 -1286.74-1219.2
GRID     651            3096.51 -1287.82-1219.2
GRID     652            3184.36 -1293.79-1219.2
GRID     653            3130.37 -1290.12-1219.2
GRID     654            3112.42 -1288.9 -1219.2
GRID     655            3148.35 -1291.34-1219.2
GRID     656            3166.34 -1292.57-1219.2
GRID     657            2883.2  -1273.33-1219.2
GRID     658            2886.28 -1088.95-1229.01
GRID     659            2891.64 -1075.05-1229.01
GRID     660            2907.   -1068.23-1229.01
GRID     661            2922.37 -1075.05-1229.01
GRID     662            2927.72 -1088.95-1229.01
GRID     663            2922.37 -1102.84-1229.01
GRID     664            2907.   -1109.66-1229.01
GRID     665            2891.64 -1102.84-1229.01
GRID     666            2961.38 -1088.95-1229.01
GRID     667            2966.74 -1075.05-1229.01
GRID     668            2982.1  -1068.23-1229.01
GRID     669            2997.47 -1075.05-1229.01
GRID     670            3002.82 -1088.95-1229.01
GRID     671            2997.47 -1102.84-1229.01
GRID     672            2982.1  -1109.66-1229.01
GRID     673            2966.74 -1102.84-1229.01
GRID     674            3036.48 -1088.95-1229.01
GRID     675            3041.84 -1075.05-1229.01
GRID     676            3057.2  -1068.23-1229.01
GRID     677            3072.57 -1075.05-1229.01
GRID     678            3077.92 -1088.95-1229.01
GRID     679            3072.57 -1102.84-1229.01
GRID     680            3057.2  -1109.66-1229.01
GRID     681            3041.84 -1102.84-1229.01
GRID     682            3111.58 -1088.95-1229.01
GRID     683            3116.94 -1075.05-1229.01
GRID     684            3132.3  -1068.23-1229.01
GRID     685            3147.67 -1075.05-1229.01
GRID     686            3153.02 -1088.95-1229.01
GRID     687            3147.67 -1102.84-1229.01
GRID     688            3132.3  -1109.66-1229.01
GRID     689            3116.94 -1102.84-1229.01
GRID     690            3186.68 -1088.95-1229.01
GRID     691            3192.04 -1075.05-1229.01
GRID     692            3207.4  -1068.23-1229.01
GRID     693            3222.77 -1075.05-1229.01
GRID     694            3228.12 -1088.95-1229.01
GRID     695            3222.77 -1102.84-1229.01
GRID     696            3207.4  -1109.66-1229.01
GRID     697            3192.04 -1102.84-1229.01
GRID     698            3424.78 -1088.95-1229.01
GRID     699            3430.14 -1075.05-1229.01
GRID     700            3445.5  -1068.23-1229.01
GRID     701            3460.87 -1075.05-1229.01
GRID     702            3466.22 -1088.95-1229.01
GRID     703            3460.87 -1102.84-1229.01
GRID     704            3445.5  -1109.66-1229.01
GRID     705            3430.14 -1102.84-1229.01
GRID     706            2957.07 -1218.  -1228.97
GRID     707            2962.74 -1202.15-1228.97
GRID     708            2982.1  -1192.97-1228.97
GRID     709            3001.47 -1202.15-1228.97
GRID     710            3007.13 -1218.  -1228.97
GRID     711            2996.53 -1238.45-1228.97
GRID     712            2982.1  -1243.03-1228.97
GRID     713            2967.67 -1238.45-1228.97
GRID     714            3032.17 -1218.  -1228.97
GRID     715            3037.83 -1202.15-1228.97
GRID     716            3057.2  -1192.97-1228.97
GRID     717            3076.57 -1202.15-1228.97
GRID     718            3082.23 -1218.  -1228.97
GRID     719            3071.63 -1238.45-1228.97
GRID     720            3057.2  -1243.03-1228.97
GRID     721            3042.77 -1238.45-1228.97
GRID     722            3197.5  -1216.94-1228.97
GRID     723            3206.33 -1198.9 -1228.97
GRID     724            3222.5  -1192.97-1228.97
GRID     725            3238.67 -1198.9 -1228.97
GRID     726            3247.5  -1216.94-1228.97
GRID     727            3239.72 -1236.16-1228.97
GRID     728            3222.5  -1243.03-1228.97
GRID     729            3205.28 -1236.16-1228.97
GRID     730            3271.81 -1218.  -1228.97
GRID     731            3280.67 -1198.9 -1228.97
GRID     732            3296.84 -1192.97-1228.97
GRID     733            3313.   -1198.9 -1228.97
GRID     734            3321.86 -1218.  -1228.97
GRID     735            3314.05 -1236.16-1228.97
GRID     736            3296.83 -1243.03-1228.97
GRID     737            3279.61 -1236.16-1228.97
GRID     738            3346.14 -1218.  -1228.97
GRID     739            3355.   -1198.9 -1228.97
GRID     740            3371.17 -1192.97-1228.97
GRID     741            3387.34 -1198.9 -1228.97
GRID     742            3396.19 -1218.  -1228.97
GRID     743            3388.39 -1236.16-1228.97
GRID     744            3371.17 -1243.03-1228.97
GRID     745            3353.95 -1236.16-1228.97
GRID     746            3420.47 -1218.  -1228.97
GRID     747            3429.33 -1198.9 -1228.97
GRID     748            3445.5  -1192.97-1228.97
GRID     749            3459.1  -1196.99-1228.97
GRID     750            3470.53 -1218.  -1228.97
GRID     751            3466.08 -1232.24-1228.97
GRID     752            3445.5  -1243.03-1228.97
GRID     753            3428.28 -1236.16-1228.97
GRID     754            2881.97 -1218.  -1228.97
GRID     755            2887.64 -1202.15-1228.97
GRID     756            2907.   -1192.97-1228.97
GRID     757            2926.37 -1202.15-1228.97
GRID     758            2932.03 -1218.  -1228.97
GRID     759            2921.43 -1238.45-1228.97
GRID     760            2907.   -1243.03-1228.97
GRID     761            2892.57 -1238.45-1228.97
GRID     762            2983.3  -1177.59-1226.6
GRID     765            3516.1  -1311.32-1230.2
GRID     766            3516.1  -1304.72-1230.2
GRID     767            3516.1  -1295.19-1230.2
GRID     768            3516.1  -1288.66-1230.2
GRID     769            3516.1  -1276.42-1230.2
GRID     770            3516.1  -1261.48-1230.2
GRID     771            3516.1  -1254.72-1230.2
GRID     772            3516.1  -1244.56-1230.2
GRID     773            3516.1  -1230.21-1230.2
GRID     774            3516.1  -1218.  -1230.2
GRID     775            3516.1  -1193.37-1230.2
GRID     776            3516.1  -1180.07-1230.2
GRID     777            3516.1  -1170.44-1230.2
GRID     778            3516.1  -1159.54-1230.2
GRID     779            3516.1  -1149.01-1230.2
GRID     780            3516.1  -1138.44-1230.2
GRID     781            3516.1  -1127.88-1230.2
GRID     782            3516.1  -1121.65-1230.2
GRID     783            3516.1  -1115.85-1230.2
GRID     784            3516.1  -1104.5 -1230.2
GRID     785            3516.1  -1088.26-1230.2
GRID     786            3516.1  -1061.46-1230.2
GRID     787            3516.1  -1050.54-1230.2
GRID     788            3516.1  -1035.67-1230.2
GRID     789            3516.1  -1022.78-1230.2
GRID     790            3516.1  -1008.  -1230.2
GRID     791            3516.1  -997.   -1230.2
GRID     792            3516.1  -1261.48-1238.7
GRID     793            3516.1  -1261.48-1247.2
GRID     794            3516.1  -1276.42-1238.7
GRID     795            3516.1  -1276.42-1247.2
GRID     796            3516.1  -1288.66-1238.7
GRID     797            3516.1  -1288.66-1247.2
GRID     798            3516.1  -1295.19-1238.7
GRID     799            3516.1  -1295.19-1247.2
GRID     800            3516.1  -1304.72-1238.7
GRID     801            3516.1  -1304.72-1247.2
GRID     802            3516.1  -1311.32-1238.7
GRID     803            3516.1  -1311.32-1247.2
GRID     804            3516.1  -1104.5 -1238.7
GRID     805            3516.1  -1104.5 -1247.2
GRID     806            3516.1  -1104.5 -1255.53
GRID     807            3516.1  -1104.5 -1263.87
GRID     808            3516.1  -1104.5 -1272.2
GRID     809            3516.1  -1115.85-1238.7
GRID     810            3516.1  -1115.85-1247.2
GRID     811            3516.1  -1115.85-1255.53
GRID     812            3516.1  -1115.85-1263.87
GRID     813            3516.1  -1115.85-1272.2
GRID     814            3516.1  -1121.65-1238.7
GRID     815            3516.1  -1121.65-1247.2
GRID     816            3516.1  -1121.65-1255.53
GRID     817            3516.1  -1121.65-1263.87
GRID     818            3516.1  -1121.65-1272.2
GRID     819            3516.1  -1127.88-1238.7
GRID     820            3516.1  -1127.88-1247.2
GRID     821            3516.1  -1127.88-1255.53
GRID     822            3516.1  -1127.88-1263.87
GRID     823            3516.1  -1127.88-1272.2
GRID     824            3516.1  -1138.44-1238.7
GRID     825            3516.1  -1138.44-1247.2
GRID     826            3516.1  -1138.44-1255.53
GRID     827            3516.1  -1138.44-1263.87
GRID     828            3516.1  -1138.44-1272.2
GRID     829            3516.1  -1149.01-1238.7
GRID     830            3516.1  -1149.01-1247.2
GRID     831            3516.1  -1149.01-1255.53
GRID     832            3516.1  -1149.01-1263.87
GRID     833            3516.1  -1149.01-1272.2
GRID     834            3516.1  -1159.54-1238.7
GRID     835            3516.1  -1159.54-1247.2
GRID     836            3516.1  -1159.54-1255.53
GRID     837            3516.1  -1159.54-1263.87
GRID     838            3516.1  -1159.54-1272.2
GRID     839            3516.1  -1170.44-1238.7
GRID     840            3516.1  -1170.44-1247.2
GRID     841            3516.1  -1170.44-1255.53
GRID     842            3516.1  -1170.44-1263.87
GRID     843            3516.1  -1170.44-1272.2
GRID     844            3516.1  -1180.07-1238.7
GRID     845            3516.1  -1180.07-1247.2
GRID     846            3516.1  -1180.07-1255.53
GRID     847            3516.1  -1180.07-1263.87
GRID     848            3516.1  -1180.07-1272.2
GRID     849            3516.1  -1193.37-1238.7
GRID     850            3516.1  -1193.37-1247.2
GRID     851            3516.1  -1193.37-1255.53
GRID     852            3516.1  -1193.37-1263.87
GRID     853            3516.1  -1193.37-1272.2
GRID     854            3516.1  -1218.  -1238.7
GRID     855            3516.1  -1218.  -1247.2
GRID     856            3516.1  -1218.  -1255.53
GRID     857            3516.1  -1218.  -1263.87
GRID     858            3516.1  -1218.  -1272.2
GRID     859            3516.1  -1230.21-1238.7
GRID     860            3516.1  -1230.21-1247.2
GRID     861            3516.1  -1230.21-1255.53
GRID     862            3516.1  -1230.21-1263.87
GRID     863            3516.1  -1230.21-1272.2
GRID     864            3516.1  -1244.56-1238.7
GRID     865            3516.1  -1244.56-1247.2
GRID     866            3516.1  -1244.56-1255.53
GRID     867            3516.1  -1244.56-1263.87
GRID     868            3516.1  -1244.56-1272.2
GRID     869            3516.1  -1254.72-1238.7
GRID     870            3516.1  -1254.72-1247.2
GRID     871            3516.1  -1254.72-1255.53
GRID     872            3516.1  -1254.72-1263.87
GRID     873            3516.1  -1254.72-1272.2
GRID     874            3516.1  -1261.48-1255.53
GRID     875            3516.1  -1261.48-1263.87
GRID     876            3516.1  -1261.48-1272.2
GRID     877            3516.1  -1008.  -1238.7
GRID     878            3516.1  -1008.  -1247.2
GRID     879            3516.1  -1008.  -1255.53
GRID     880            3516.1  -1008.  -1263.87
GRID     881            3516.1  -1008.  -1272.2
GRID     882            3516.1  -1008.  -1282.45
GRID     883            3516.1  -1008.  -1292.7
GRID     884            3516.1  -1008.  -1302.95
GRID     885            3516.1  -1008.  -1313.2
GRID     886            3516.1  -1022.78-1238.7
GRID     887            3516.1  -1022.78-1247.2
GRID     888            3516.1  -1022.78-1255.53
GRID     889            3516.1  -1022.78-1263.87
GRID     890            3516.1  -1022.78-1272.2
GRID     891            3516.1  -1022.78-1282.45
GRID     892            3516.1  -1022.78-1292.7
GRID     893            3516.1  -1022.78-1302.95
GRID     894            3516.1  -1022.78-1313.2
GRID     895            3516.1  -1035.67-1238.7
GRID     896            3516.1  -1035.67-1247.2
GRID     897            3516.1  -1035.67-1255.53
GRID     898            3516.1  -1035.67-1263.87
GRID     899            3516.1  -1035.67-1272.2
GRID     900            3516.1  -1035.67-1282.45
GRID     901            3516.1  -1035.67-1292.7
GRID     902            3516.1  -1035.67-1302.95
GRID     903            3516.1  -1035.67-1313.2
GRID     904            3516.1  -1050.54-1238.7
GRID     905            3516.1  -1050.54-1247.2
GRID     906            3516.1  -1050.54-1255.53
GRID     907            3516.1  -1050.54-1263.87
GRID     908            3516.1  -1050.54-1272.2
GRID     909            3516.1  -1050.54-1282.45
GRID     910            3516.1  -1050.54-1292.7
GRID     911            3516.1  -1050.54-1302.95
GRID     912            3516.1  -1050.54-1313.2
GRID     913            3516.1  -1061.46-1238.7
GRID     914            3516.1  -1061.46-1247.2
GRID     915            3516.1  -1061.46-1255.53
GRID     916            3516.1  -1061.46-1263.87
GRID     917            3516.1  -1061.46-1272.2
GRID     918            3516.1  -1061.46-1282.45
GRID     919            3516.1  -1061.46-1292.7
GRID     920            3516.1  -1061.46-1302.95
GRID     921            3516.1  -1061.46-1313.2
GRID     922            3516.1  -1088.26-1238.7
GRID     923            3516.1  -1088.26-1247.2
GRID     924            3516.1  -1088.26-1255.53
GRID     925            3516.1  -1088.26-1263.87
GRID     926            3516.1  -1088.26-1272.2
GRID     927            3516.1  -1088.26-1282.45
GRID     928            3516.1  -1088.26-1292.7
GRID     929            3516.1  -1088.26-1302.95
GRID     930            3516.1  -1088.26-1313.2
GRID     931            3516.1  -1104.5 -1282.45
GRID     932            3516.1  -1104.5 -1292.7
GRID     933            3516.1  -1104.5 -1302.95
GRID     934            3516.1  -1104.5 -1313.2
GRID     935            3516.1  -998.8  -1313.2
GRID     936            3516.1  -998.8  -1302.78
GRID     937            3516.1  -998.8  -1292.36
GRID     938            3516.1  -998.8  -1281.94
GRID     939            3516.1  -998.8  -1271.52
GRID     940            3516.1  -998.8  -1263.05
GRID     941            3513.1  -995.8  -1313.2
GRID     942            3513.1  -995.8  -1302.78
GRID     943            3513.1  -995.8  -1292.36
GRID     944            3513.1  -995.8  -1281.94
GRID     945            3513.1  -995.8  -1271.52
GRID     946            3513.1  -995.8  -1263.05
GRID     947            3490.1  -995.8  -1313.2
GRID     948            3490.1  -995.8  -1302.78
GRID     949            3490.1  -995.8  -1292.36
GRID     950            3490.1  -995.8  -1281.94
GRID     951            3490.1  -995.8  -1271.52
GRID     952            3490.1  -995.8  -1263.05
GRID     953            3501.6  -995.8  -1313.2
GRID     954            3501.6  -995.8  -1302.78
GRID     955            3501.6  -995.8  -1292.36
GRID     956            3501.6  -995.8  -1281.94
GRID     957            3501.6  -995.8  -1271.52
GRID     958            3501.6  -995.8  -1263.05
GRID     1000           3340.25 -1114.44-1226.6
GRID     1001           3143.5  -1252.81-1226.6
GRID     1090           3310.   -1097.94-1226.6
GRID     1597           3454.44 -1278.99-1304.27
GRID     1598           3454.44 -1213.99-1304.27
GRID     1599           3454.44 -1148.99-1304.27
GRID     2330           3178.   -1272.5 -1226.6
GRID     3000           2854.35 -1142.  -1123.14 36
GRID     3001           2919.35 -1142.  -1123.14 36
GRID     3002           2960.31 -1142.  -1123.14 36
GRID     3003           3036.21 -1142.  -1123.14 36
GRID     3004           3112.11 -1142.  -1123.14 36
GRID     3005           3188.02 -1142.  -1123.14 36
GRID     3006           3265.35 -1142.  -1123.14 36
GRID     3007           3339.82 -1142.  -1123.14 36
GRID     3008           3415.72 -1142.  -1123.14 36
GRID     3009           3436.35 -1142.  -1123.14 36
GRID     3010           3513.35 -1142.  -1123.14 36
GRID     3011           3584.35 -1142.  -1123.14 36
GRID     3012           3655.35 -1142.  -1123.14 36
GRID     3013           3425.72 -1142.  -1123.14 36
GRID     3014           2940.35 -1142.  -1123.14 36
GRID     3970           3357.69 -1147.36-1226.6
GRID     4500           2873.4  -1088.55-1226.6
GRID     4501           2873.4  -1071.97-1226.6
GRID     4502           2873.38 -1116.94-1226.6
GRID     4503           2873.4  -1105.92-1226.6
GRID     4504           2873.4  -1218.62-1226.6
GRID     4505           2873.4  -1253.62-1226.6
GRID     4506           2873.4  -1243.6 -1226.6
GRID     4507           2873.4  -1180.  -1226.6
GRID     4508           2873.4  -1199.64-1226.6
GRID     4509           2873.38 -1123.67-1226.6
GRID     4510           2873.4  -1131.33-1226.6
GRID     4511           2873.4  -1143.5 -1226.6
GRID     4512           2873.4  -1155.67-1226.6
GRID     4513           2873.4  -1169.43-1226.6
GRID     4514           2873.4  -1263.59-1226.6
GRID     4515           2873.4  -1260.22-1226.6
GRID     4516           2854.6  -1077.41-1226.6
GRID     4517           2864.   -1077.35-1226.6
GRID     4518           2854.6  -1088.55-1226.6
GRID     4519           2865.03 -1088.55-1226.6
GRID     4520           2854.6  -1105.85-1226.6
GRID     4521           2865.02 -1105.9 -1226.6
GRID     4522           2854.6  -1116.89-1226.6
GRID     4523           2864.97 -1116.95-1226.6
GRID     4524           2854.6  -1123.69-1226.6
GRID     4525           2864.   -1121.7 -1226.6
GRID     4526           2854.6  -1131.29-1226.6
GRID     4527           2865.09 -1131.3 -1226.6
GRID     4528           2854.6  -1143.25-1226.6
GRID     4529           2865.03 -1143.41-1226.6
GRID     4530           2854.6  -1155.57-1226.6
GRID     4531           2865.07 -1155.74-1226.6
GRID     4532           2854.6  -1170.44-1226.6
GRID     4533           2864.   -1170.3 -1226.6
GRID     4534           2854.6  -1180.71-1226.6
GRID     4535           2864.   -1178.3 -1226.6
GRID     4536           2854.6  -1199.58-1226.6
GRID     4537           2865.03 -1199.63-1226.6
GRID     4538           2854.6  -1218.72-1226.6
GRID     4539           2865.01 -1218.63-1226.6
GRID     4540           2854.6  -1237.95-1226.6
GRID     4541           2865.02 -1238.05-1226.6
GRID     4542           2854.6  -1254.77-1226.6
GRID     4543           2864.   -1254.8 -1226.6
GRID     4544           2864.   -1260.22-1226.6
GRID     4545           2864.   -1263.59-1226.6
GRID     4546           2873.4  -1263.59-1232.
GRID     4547           2873.4  -1260.22-1232.
GRID     4548           2873.4  -1253.62-1232.
GRID     4549           2873.4  -1243.6 -1232.
GRID     4550           2873.4  -1218.62-1232.
GRID     4551           2873.4  -1199.64-1232.
GRID     4552           2873.4  -1180.  -1232.
GRID     4553           2873.4  -1169.43-1232.
GRID     4554           2873.4  -1155.67-1232.
GRID     4555           2873.4  -1143.5 -1232.
GRID     4556           2873.4  -1131.33-1232.
GRID     4557           2873.4  -1122.91-1232.
GRID     4558           2873.4  -1114.89-1232.
GRID     4559           2873.4  -1088.55-1232.
GRID     4560           2873.4  -1071.97-1232.
GRID     4561           2873.4  -1105.92-1232.
GRID     4562           2854.6  -1266.9 -1226.6
GRID     4563           2854.6  -1208.73-1267.68
GRID     4564           2854.6  -1217.61-1254.11
GRID     4565           2854.6  -1227.05-1241.11
GRID     4566           2854.6  -1228.51-1267.68
GRID     4567           2854.6  -1237.39-1254.11
GRID     4568           2854.6  -1246.83-1241.11
GRID     4574           2873.4  -1064.  -1232.
GRID     4590           2854.6  -1064.  -1226.6
GRID     4591           2854.6  -1260.05-1236.32
GRID     4592           2854.6  -1249.15-1234.68
GRID     4593           2854.6  -1232.81-1234.68
GRID     4594           2854.6  -1214.32-1234.68
GRID     4595           2854.6  -1195.72-1234.68
GRID     4596           2854.6  -1177.39-1234.68
GRID     4597           2854.6  -1167.4 -1234.68
GRID     4598           2854.6  -1152.96-1234.68
GRID     4599           2854.6  -1140.99-1234.68
GRID     4600           2854.6  -1129.38-1234.68
GRID     4601           2854.6  -1121.99-1234.68
GRID     4602           2854.6  -1115.38-1234.68
GRID     4603           2854.6  -1104.66-1234.68
GRID     4604           2854.6  -1087.85-1234.68
GRID     4605           2854.6  -1077.03-1234.68
GRID     4606           2854.6  -1064.  -1234.68
GRID     4607           2854.6  -1253.8 -1245.18
GRID     4610           2854.6  -1209.91-1243.96
GRID     4611           2854.6  -1191.85-1243.96
GRID     4612           2854.6  -1174.06-1243.96
GRID     4613           2854.6  -1164.37-1243.96
GRID     4614           2854.6  -1150.36-1243.96
GRID     4615           2854.6  -1138.73-1243.96
GRID     4616           2854.6  -1127.46-1243.96
GRID     4617           2854.6  -1120.29-1243.96
GRID     4618           2854.6  -1113.88-1243.96
GRID     4619           2854.6  -1103.47-1243.96
GRID     4620           2854.6  -1087.15-1243.96
GRID     4621           2854.6  -1076.65-1243.96
GRID     4622           2854.6  -1064.  -1243.96
GRID     4623           2854.6  -1247.54-1254.06
GRID     4626           2854.6  -1205.5 -1253.24
GRID     4627           2854.6  -1187.99-1253.24
GRID     4628           2854.6  -1170.74-1253.24
GRID     4629           2854.6  -1161.34-1253.24
GRID     4630           2854.6  -1147.75-1253.24
GRID     4631           2854.6  -1136.48-1253.24
GRID     4632           2854.6  -1125.54-1253.24
GRID     4633           2854.6  -1118.59-1253.24
GRID     4634           2854.6  -1112.37-1253.24
GRID     4635           2854.6  -1102.28-1253.24
GRID     4636           2854.6  -1086.45-1253.24
GRID     4637           2854.6  -1076.27-1253.24
GRID     4638           2854.6  -1064.  -1253.24
GRID     4639           2854.6  -1241.28-1262.93
GRID     4642           2854.6  -1201.09-1262.52
GRID     4643           2854.6  -1184.13-1262.52
GRID     4644           2854.6  -1167.41-1262.52
GRID     4645           2854.6  -1158.31-1262.52
GRID     4646           2854.6  -1145.14-1262.52
GRID     4647           2854.6  -1136.  -1261.8
GRID     4648           2854.6  -1123.63-1262.52
GRID     4649           2854.6  -1116.  -1261.8
GRID     4650           2854.6  -1110.87-1262.52
GRID     4651           2854.6  -1096.  -1261.8
GRID     4652           2854.6  -1085.75-1262.52
GRID     4653           2854.6  -1076.  -1263.
GRID     4654           2854.6  -1064.  -1262.52
GRID     4655           2854.6  -1235.02-1271.8
GRID     4656           2854.6  -1226.68-1271.8
GRID     4657           2854.6  -1205.78-1271.8
GRID     4658           2854.6  -1191.47-1271.8
GRID     4659           2854.6  -1180.27-1271.8
GRID     4660           2854.6  -1164.09-1271.8
GRID     4661           2854.6  -1155.28-1271.8
GRID     4662           2854.6  -1142.53-1271.8
GRID     4663           2854.6  -1131.96-1271.8
GRID     4664           2854.6  -1121.71-1271.8
GRID     4665           2854.6  -1115.19-1271.8
GRID     4666           2854.6  -1109.36-1271.8
GRID     4667           2854.6  -1099.89-1271.8
GRID     4668           2854.6  -1085.06-1271.8
GRID     4669           2854.6  -1075.5 -1271.8
GRID     4670           2854.6  -1064.  -1271.8
GRID     4671           2854.6  -1235.02-1275.4
GRID     4672           2854.6  -1064.  -1275.4
GRID     4674           2854.6  -1075.5 -1275.4
GRID     4675           2854.6  -1085.06-1275.4
GRID     4676           2854.6  -1099.89-1275.4
GRID     4677           2854.6  -1109.36-1275.4
GRID     4678           2854.6  -1115.19-1275.4
GRID     4679           2854.6  -1121.71-1275.4
GRID     4680           2854.6  -1131.96-1275.4
GRID     4681           2854.6  -1142.53-1275.4
GRID     4682           2854.6  -1155.28-1275.4
GRID     4683           2854.6  -1164.09-1275.4
GRID     4684           2854.6  -1180.27-1275.4
GRID     4685           2854.6  -1191.47-1275.4
GRID     4686           2854.6  -1205.78-1275.4
GRID     4687           2854.6  -1226.68-1275.4
GRID     4719           2864.   -1191.47-1275.4
GRID     4720           2864.   -1181.67-1275.4
GRID     4721           2864.   -1171.86-1275.4
GRID     4722           2864.   -1162.06-1275.4
GRID     4723           2864.   -1152.25-1275.4
GRID     4724           2864.   -1142.45-1275.4
GRID     4725           2864.   -1132.64-1275.4
GRID     4726           2864.   -1122.83-1275.4
GRID     4727           2864.   -1113.03-1275.4
GRID     4728           2864.   -1103.22-1275.4
GRID     4729           2864.   -1093.42-1275.4
GRID     4730           2864.   -1083.61-1275.4
GRID     4731           2864.   -1073.81-1275.4
GRID     4732           2864.   -1064.  -1275.4
GRID     4733           2873.4  -1191.47-1275.4
GRID     4734           2873.4  -1181.67-1275.4
GRID     4735           2873.4  -1171.86-1275.4
GRID     4736           2873.4  -1162.06-1275.4
GRID     4737           2873.4  -1152.25-1275.4
GRID     4738           2873.4  -1142.45-1275.4
GRID     4739           2873.4  -1132.64-1275.4
GRID     4740           2873.4  -1122.83-1275.4
GRID     4741           2873.4  -1113.03-1275.4
GRID     4742           2873.4  -1103.22-1275.4
GRID     4743           2873.4  -1093.42-1275.4
GRID     4744           2873.4  -1083.61-1275.4
GRID     4745           2873.4  -1073.81-1275.4
GRID     4746           2873.4  -1064.  -1275.4
GRID     4761           2873.4  -1064.  -1270.
GRID     4762           2873.4  -1073.81-1270.
GRID     4763           2873.4  -1083.61-1270.
GRID     4764           2873.4  -1093.42-1270.
GRID     4765           2873.4  -1103.22-1270.
GRID     4766           2873.4  -1113.03-1270.
GRID     4767           2873.4  -1122.83-1270.
GRID     4768           2873.4  -1132.64-1270.
GRID     4769           2873.4  -1142.45-1270.
GRID     4770           2873.4  -1152.25-1270.
GRID     4771           2873.4  -1162.06-1270.
GRID     4772           2873.4  -1171.86-1270.
GRID     4773           2873.4  -1181.67-1270.
GRID     4774           2873.4  -1191.47-1270.
GRID     5840           3109.58 -1235.48-1226.6
GRID     6001           3513.1  -1088.55-1226.6
GRID     6002           3513.1  -1106.08-1226.6
GRID     6003           3513.1  -1115.85-1226.6
GRID     6004           3513.1  -1121.65-1226.6
GRID     6005           3502.5  -1127.88-1226.6
GRID     6006           3502.5  -1138.44-1226.6
GRID     6007           3502.5  -1148.99-1226.6
GRID     6008           3502.5  -1159.54-1226.6
GRID     6009           3513.1  -1170.44-1226.6
GRID     6010           3503.5  -1176.8 -1226.6
GRID     6011           3502.5  -1193.37-1226.6
GRID     6012           3503.7  -1218.  -1226.6
GRID     6013           3513.1  -1229.88-1226.6
GRID     6014           3503.4  -1243.15-1226.6
GRID     6015           3513.1  -1266.28-1226.6
GRID     6016           3513.1  -1288.66-1226.6
GRID     6017           3513.1  -1295.19-1226.6
GRID     6018           3513.1  -1308.25-1226.6
GRID     6019           3513.1  -1321.31-1226.6
GRID     6020           3513.1  -1334.38-1226.6
GRID     6021           3513.1  -1347.44-1226.6
GRID     6022           3513.1  -1360.5 -1226.6
GRID     6023           3502.5  -1360.5 -1226.6
GRID     6024           3513.1  -1276.42-1226.6
GRID     6025           3513.1  -1064.68-1266.
GRID     6026           3513.1  -1077.03-1266.
GRID     6027           3513.1  -1098.14-1266.
GRID     6028           3513.1  -1106.92-1266.
GRID     6029           3513.1  -1113.72-1266.
GRID     6030           3513.1  -1127.88-1266.
GRID     6031           3513.1  -1138.44-1266.
GRID     6032           3513.1  -1149.01-1266.
GRID     6033           3513.1  -1159.54-1266.
GRID     6034           3513.1  -1170.44-1266.
GRID     6035           3513.1  -1180.07-1266.
GRID     6036           3513.1  -1189.19-1266.
GRID     6037           3513.1  -1210.56-1266.
GRID     6038           3513.1  -1229.88-1266.
GRID     6039           3513.1  -1240.56-1266.
GRID     6040           3513.1  -1246.72-1266.
GRID     6041           3513.1  -1260.28-1266.
GRID     6042           3513.1  -1280.66-1266.
GRID     6043           3513.1  -1300.95-1266.
GRID     6044           3513.1  -1308.25-1266.
GRID     6045           3513.1  -1321.31-1266.
GRID     6046           3513.1  -1270.42-1266.
GRID     6047           3513.1  -1077.03-1246.6
GRID     6048           3494.3  -1280.  -1266.01
GRID     6049           3494.3  -1270.  -1266.01
GRID     6050           3494.3  -1260.  -1266.01
GRID     6051           3494.3  -1250.  -1266.01
GRID     6052           3494.3  -1240.  -1266.01
GRID     6053           3494.3  -1210.  -1266.01
GRID     6054           3494.3  -1230.98-1266.01
GRID     6055           3494.3  -1180.  -1266.01
GRID     6056           3494.3  -1189.02-1266.01
GRID     6057           3494.3  -1127.86-1266.01
GRID     6058           3494.3  -1138.29-1266.01
GRID     6059           3494.3  -1148.71-1266.01
GRID     6060           3494.3  -1159.14-1266.01
GRID     6061           3494.3  -1169.57-1266.01
GRID     6062           3494.3  -1300.54-1266.01
GRID     6063           3494.3  -1308.25-1266.01
GRID     6064           3494.3  -1077.  -1266.01
GRID     6065           3494.3  -1064.98-1266.01
GRID     6066           3494.3  -1107.  -1266.01
GRID     6067           3494.3  -1097.98-1266.01
GRID     6068           3494.3  -1113.81-1266.01
GRID     6069           3503.9  -1064.87-1266.
GRID     6070           3503.47 -1076.93-1266.
GRID     6071           3502.22 -1097.85-1266.
GRID     6072           3502.41 -1107.1 -1266.
GRID     6073           3502.6  -1113.81-1266.
GRID     6074           3502.71 -1127.97-1266.
GRID     6075           3502.69 -1138.35-1266.
GRID     6076           3502.88 -1148.63-1266.
GRID     6077           3502.62 -1159.45-1266.
GRID     6078           3502.53 -1170.44-1266.
GRID     6079           3502.66 -1179.79-1266.
GRID     6080           3502.77 -1189.37-1266.
GRID     6081           3502.8  -1210.75-1266.
GRID     6082           3502.92 -1229.88-1266.
GRID     6083           3502.98 -1240.28-1266.
GRID     6084           3502.6  -1260.19-1266.
GRID     6085           3502.85 -1280.47-1266.
GRID     6086           3502.54 -1302.18-1266.
GRID     6087           3502.67 -1308.25-1266.
GRID     6088           3502.78 -1270.23-1266.
GRID     6089           3502.5  -1314.78-1266.
GRID     6090           3494.3  -1280.  -1261.1
GRID     6091           3494.3  -1270.  -1261.1
GRID     6092           3494.3  -1260.  -1261.1
GRID     6093           3494.3  -1250.  -1261.1
GRID     6094           3494.3  -1240.  -1261.1
GRID     6095           3494.3  -1210.  -1261.1
GRID     6096           3494.3  -1230.98-1261.1
GRID     6097           3494.3  -1180.  -1261.1
GRID     6098           3494.3  -1189.02-1261.1
GRID     6099           3494.3  -1127.86-1261.1
GRID     6100           3494.3  -1138.29-1261.1
GRID     6101           3494.3  -1148.71-1261.1
GRID     6102           3494.3  -1159.14-1261.1
GRID     6103           3494.3  -1169.57-1261.1
GRID     6104           3494.3  -1300.54-1261.1
GRID     6105           3494.3  -1308.25-1261.1
GRID     6106           3494.3  -1077.  -1261.1
GRID     6107           3494.3  -1064.98-1261.89
GRID     6108           3494.3  -1107.  -1261.1
GRID     6109           3494.3  -1097.98-1261.1
GRID     6110           3494.3  -1113.81-1261.1
GRID     6111           3494.3  -1280.  -1232.1
GRID     6112           3494.3  -1270.  -1232.1
GRID     6113           3494.3  -1260.  -1232.1
GRID     6114           3494.3  -1250.  -1232.1
GRID     6115           3494.3  -1240.  -1232.1
GRID     6116           3494.3  -1210.  -1232.1
GRID     6117           3494.3  -1230.98-1232.1
GRID     6118           3494.3  -1180.  -1232.1
GRID     6119           3494.3  -1189.02-1232.1
GRID     6120           3494.3  -1127.86-1232.1
GRID     6121           3494.3  -1138.29-1232.1
GRID     6122           3494.3  -1148.72-1232.1
GRID     6123           3494.3  -1159.14-1232.1
GRID     6124           3494.3  -1169.57-1232.1
GRID     6125           3494.3  -1300.54-1232.1
GRID     6126           3494.3  -1308.25-1232.1
GRID     6127           3494.3  -1092.96-1232.1
GRID     6128           3494.3  -1062.97-1232.1
GRID     6129           3494.3  -1114.94-1232.1
GRID     6130           3494.3  -1105.92-1232.1
GRID     6131           3494.3  -1121.75-1232.1
GRID     6132           3513.1  -1389.23-1237.09
GRID     6133           3513.1  -1382.36-1247.27
GRID     6134           3513.1  -1374.55-1236.6
GRID     6135           3513.1  -1374.58-1246.6
GRID     6136           3513.1  -1360.8 -1256.6
GRID     6137           3513.1  -1374.5 -1266.
GRID     6138           3513.1  -1360.74-1236.6
GRID     6139           3513.1  -1360.8 -1246.6
GRID     6141           3513.1  -1360.5 -1266.
GRID     6142           3513.1  -1347.4 -1256.6
GRID     6143           3513.1  -1347.44-1266.
GRID     6144           3513.1  -1347.31-1236.6
GRID     6145           3513.1  -1347.31-1246.6
GRID     6146           3513.1  -1334.07-1236.6
GRID     6147           3513.1  -1334.03-1246.6
GRID     6148           3513.1  -1334.21-1256.6
GRID     6149           3513.1  -1334.38-1266.
GRID     6150           3513.1  -1321.18-1256.6
GRID     6151           3513.1  -1321.02-1236.6
GRID     6152           3513.1  -1320.96-1246.6
GRID     6153           3513.1  -1308.25-1236.6
GRID     6154           3513.1  -1308.1 -1246.6
GRID     6155           3513.1  -1296.23-1236.6
GRID     6156           3513.14 -1295.99-1259.87
GRID     6157           3513.1  -1295.27-1246.6
GRID     6159           3513.1  -1281.02-1236.6
GRID     6160           3513.1  -1280.87-1246.6
GRID     6162           3513.1  -1270.42-1236.6
GRID     6163           3513.1  -1270.42-1246.6
GRID     6164           3513.1  -1246.72-1246.6
GRID     6165           3513.1  -1246.72-1236.6
GRID     6166           3513.1  -1246.72-1256.6
GRID     6167           3513.1  -1238.54-1236.6
GRID     6168           3513.1  -1238.72-1256.6
GRID     6169           3513.1  -1238.11-1246.6
GRID     6170           3513.1  -1225.19-1236.6
GRID     6171           3513.1  -1225.33-1256.6
GRID     6172           3513.1  -1224.11-1246.6
GRID     6173           3513.1  -1208.58-1236.6
GRID     6174           3513.1  -1208.68-1256.6
GRID     6175           3513.1  -1208.08-1246.6
GRID     6176           3513.1  -1189.19-1246.6
GRID     6177           3513.1  -1189.19-1236.6
GRID     6178           3513.1  -1189.19-1256.6
GRID     6179           3513.1  -1170.44-1246.6
GRID     6180           3513.1  -1170.44-1256.6
GRID     6181           3513.1  -1170.44-1236.6
GRID     6182           3513.1  -1161.01-1246.6
GRID     6183           3513.1  -1160.64-1236.6
GRID     6184           3513.1  -1160.69-1256.6
GRID     6185           3513.1  -1147.96-1236.6
GRID     6186           3513.1  -1148.02-1256.6
GRID     6187           3513.1  -1147.71-1246.6
GRID     6188           3513.1  -1138.44-1236.6
GRID     6189           3513.1  -1138.44-1256.6
GRID     6190           3513.1  -1138.44-1246.6
GRID     6191           3513.1  -1113.72-1246.6
GRID     6192           3513.1  -1113.72-1236.6
GRID     6194           3513.1  -1106.18-1236.6
GRID     6195           3513.1  -1106.03-1246.6
GRID     6196           3513.14 -1105.23-1259.
GRID     6197           3513.1  -1093.62-1236.6
GRID     6199           3513.1  -1092.69-1246.6
GRID     6200           3513.1  -1077.03-1236.6
GRID     6202           3513.1  -1064.  -1236.6
GRID     6203           3513.1  -1064.  -1246.6
GRID     6205           3513.1  -1260.28-1236.6
GRID     6206           3513.1  -1260.23-1246.6
GRID     6207           3513.1  -1260.28-1256.6
GRID     6208           3513.1  -1180.07-1236.6
GRID     6209           3513.1  -1180.  -1246.6
GRID     6210           3513.1  -1179.93-1256.6
GRID     6211           3513.1  -1127.88-1236.6
GRID     6212           3513.1  -1127.88-1246.6
GRID     6213           3513.1  -1127.88-1256.6
GRID     6214           3502.79 -1250.23-1266.
GRID     6216           3503.3  -1044.69-1226.6
GRID     6223           3494.3  -1360.5 -1226.6
GRID     6224           3502.5  -1088.55-1226.6
GRID     6225           3502.5  -1106.  -1226.6
GRID     6226           3502.49 -1115.9 -1226.6
GRID     6227           3502.5  -1121.7 -1226.6
GRID     6228           3502.5  -1229.88-1226.6
GRID     6229           3513.1  -1254.72-1226.6
GRID     6230           3502.5  -1266.28-1226.6
GRID     6231           3502.5  -1276.42-1226.6
GRID     6232           3502.5  -1288.66-1226.6
GRID     6233           3502.5  -1295.19-1226.6
GRID     6234           3502.5  -1308.25-1226.6
GRID     6235           3502.5  -1321.31-1226.6
GRID     6236           3494.3  -1321.31-1226.6
GRID     6237           3502.5  -1334.38-1226.6
GRID     6238           3494.3  -1334.38-1226.6
GRID     6239           3502.5  -1347.44-1226.6
GRID     6240           3494.3  -1347.44-1226.6
GRID     6241           3513.1  -1374.5 -1226.6
GRID     6242           3513.1  -1388.5 -1226.6
GRID     6243           3507.35 -1388.5 -1226.6
GRID     6244           3505.62 -1374.11-1226.6
GRID     6245           3499.33 -1373.71-1226.6
GRID     6246           3502.5  -1388.5 -1226.6
GRID     6247           3494.3  -1105.92-1226.6
GRID     6248           3494.3  -1288.  -1226.6
GRID     6249           3494.3  -1276.  -1226.6
GRID     6250           3494.3  -1266.  -1226.6
GRID     6251           3494.3  -1256.  -1226.6
GRID     6252           3513.1  -1242.3 -1226.6
GRID     6253           3494.3  -1230.98-1226.6
GRID     6254           3494.3  -1180.  -1226.6
GRID     6255           3494.3  -1121.75-1226.6
GRID     6256           3513.1  -1143.71-1226.6
GRID     6257           3494.3  -1169.57-1226.6
GRID     6258           3494.3  -1300.54-1226.6
GRID     6259           3494.3  -1308.25-1226.6
GRID     6263           3513.14 -1315.99-1259.87
GRID     6264           3513.1  -1127.88-1226.6
GRID     6265           3513.1  -1138.44-1226.6
GRID     6266           3513.1  -1159.54-1226.6
GRID     6267           3513.1  -1180.07-1226.6
GRID     6268           3513.1  -1193.37-1226.6
GRID     6269           3513.1  -1218.  -1226.6
GRID     6270           3513.1  -1375.6 -1257.29
GRID     6271           3513.14 -1285.99-1259.87
GRID     6272           3513.14 -1275.99-1259.87
GRID     6273           3513.14 -1120.23-1259.
GRID     6274           3513.14 -1090.23-1259.
GRID     6275           3513.14 -1075.23-1259.
GRID     6276           3513.1  -1064.  -1258.1
GRID     6279           3513.1  -1009.89-1226.6
GRID     6281           3502.32 -1170.3 -1226.6
GRID     6282           3502.5  -1254.72-1226.6
GRID     6283           3494.3  -1088.55-1226.6
GRID     6284           3494.3  -1115.94-1226.6
GRID     6286           3494.3  -1244.  -1226.6
GRID     6287           3494.3  -1218.  -1226.6
GRID     6288           3494.3  -1193.37-1226.6
GRID     6289           3494.3  -1127.86-1226.6
GRID     6290           3494.3  -1138.29-1226.6
GRID     6291           3494.3  -1148.71-1226.6
GRID     6292           3494.3  -1159.54-1226.6
GRID     8000           2873.4  -1062.06-1226.6
GRID     8001           2864.   -1062.06-1226.6
GRID     8003           3513.1  -1062.06-1226.6
GRID     8004           3513.1  -1050.54-1226.6
GRID     8005           3494.3  -1047.  -1226.6
GRID     8006           3513.1  -1022.78-1226.6
GRID     8007           3503.5  -1035.67-1226.6
GRID     8008           3513.1  -1035.67-1226.6
GRID     8009           3483.23 -1048.56-1226.6
GRID     8010           3513.1  -997.8  -1226.6
GRID     8011           3494.3  -1035.67-1226.6
GRID     8012           3502.5  -1062.06-1226.6
GRID     8013           3494.3  -1062.06-1226.6
GRID     8014           3503.03 -997.8  -1226.6
GRID     8015           3495.95 -997.8  -1226.6
GRID     8016           3495.18 -1009.89-1226.6
GRID     8017           3494.93 -1022.78-1226.6
GRID     8018           3502.92 -1009.89-1226.6
GRID     8019           3502.82 -1022.78-1226.6
GRID     8020           3483.05 -1062.06-1226.6
GRID     8021           2963.33 -1062.06-1226.6
GRID     8022           2982.1  -1062.06-1226.6
GRID     8023           3057.2  -1062.06-1226.6
GRID     8024           3077.97 -1062.06-1226.6
GRID     8025           3000.87 -1062.06-1226.6
GRID     8026           3019.65 -1062.06-1226.6
GRID     8027           2944.55 -1062.06-1226.6
GRID     8028           2888.23 -1062.06-1226.6
GRID     8029           2907.   -1062.06-1226.6
GRID     8030           2925.77 -1062.06-1226.6
GRID     8031           3038.43 -1062.06-1226.6
GRID     8032           3094.75 -1062.06-1226.6
GRID     8033           3113.53 -1062.06-1226.6
GRID     8034           3132.3  -1062.06-1226.6
GRID     8035           3151.07 -1062.06-1226.6
GRID     8036           3169.85 -1062.06-1226.6
GRID     8037           3188.63 -1062.06-1226.6
GRID     8038           3207.4  -1062.06-1226.6
GRID     8039           3226.17 -1062.06-1226.6
GRID     8040           3244.95 -1062.06-1226.6
GRID     8041           3426.73 -1062.06-1226.6
GRID     8042           3445.5  -1062.06-1226.6
GRID     8043           3464.27 -1062.06-1226.6
GRID     8044           3407.95 -1062.06-1226.6
GRID     8045           3252.83 -1062.06-1226.6
GRID     8046           3387.5  -1062.06-1226.6
GRID     8047           3372.54 -1062.06-1226.6
GRID     8048           3357.57 -1062.06-1226.6
GRID     8049           3342.61 -1062.06-1226.6
GRID     8050           3327.65 -1062.06-1226.6
GRID     8051           3312.69 -1062.06-1226.6
GRID     8052           3297.72 -1062.06-1226.6
GRID     8053           3282.76 -1062.06-1226.6
GRID     8054           3267.8  -1062.06-1226.6
GRID     8055           2863.8  -1044.29-1226.6
GRID     8056           2981.9  -1044.29-1226.6
GRID     8057           3084.   -1044.69-1226.6
GRID     8058           3252.63 -1044.29-1226.6
GRID     8059           2925.06 -997.8  -1241.06
GRID     8060           2910.23 -997.8  -1241.06
GRID     8062           3471.1  -997.8  -1241.06
GRID     8063           3485.94 -997.8  -1241.06
GRID     8064           3456.27 -997.8  -1241.06
GRID     8065           3441.44 -997.8  -1241.06
GRID     8066           2895.4  -997.8  -1241.06
GRID     8067           3483.6  -997.8  -1226.6
GRID     8068           2864.   -1009.89-1226.6
GRID     8069           2864.   -1022.78-1226.6
GRID     8070           2864.   -1035.67-1226.6
GRID     8072           2874.   -1009.89-1226.6
GRID     8073           2874.   -1022.78-1226.6
GRID     8074           2874.   -1035.67-1226.6
GRID     8075           2874.   -1048.57-1226.6
GRID     8076           3000.87 -997.8  -1226.6
GRID     8077           2982.1  -997.8  -1226.6
GRID     8078           3000.87 -1009.89-1226.6
GRID     8079           2982.1  -1009.89-1226.6
GRID     8080           3000.87 -1022.78-1226.6
GRID     8081           2982.1  -1022.78-1226.6
GRID     8082           3000.87 -1035.67-1226.6
GRID     8083           2982.1  -1035.67-1226.6
GRID     8084           3000.87 -1048.57-1226.6
GRID     8085           2963.33 -1048.57-1226.6
GRID     8086           2963.33 -1035.67-1226.6
GRID     8087           2963.33 -1022.78-1226.6
GRID     8088           2963.33 -1009.89-1226.6
GRID     8089           2963.33 -997.8  -1226.6
GRID     8090           3019.65 -997.8  -1226.6
GRID     8091           3019.65 -1009.89-1226.6
GRID     8092           3019.65 -1022.78-1226.6
GRID     8093           3019.65 -1035.67-1226.6
GRID     8094           3019.65 -1048.57-1226.6
GRID     8095           2944.55 -997.8  -1226.6
GRID     8096           2944.55 -1009.89-1226.6
GRID     8097           2944.55 -1022.78-1226.6
GRID     8098           2944.55 -1035.67-1226.6
GRID     8100           2925.77 -997.8  -1226.6
GRID     8101           2907.   -997.8  -1226.6
GRID     8102           2925.77 -1009.89-1226.6
GRID     8103           2907.   -1009.89-1226.6
GRID     8104           2925.77 -1022.78-1226.6
GRID     8105           2907.   -1022.78-1226.6
GRID     8106           2925.77 -1035.67-1226.6
GRID     8107           2907.   -1035.67-1226.6
GRID     8111           2888.23 -1035.67-1226.6
GRID     8112           2888.23 -1022.78-1226.6
GRID     8113           2888.23 -1009.89-1226.6
GRID     8114           2888.23 -997.8  -1226.6
GRID     8115           3075.97 -997.8  -1226.6
GRID     8116           3057.2  -997.8  -1226.6
GRID     8117           3075.97 -1009.89-1226.6
GRID     8118           3057.2  -1009.89-1226.6
GRID     8119           3075.97 -1022.78-1226.6
GRID     8120           3057.2  -1022.78-1226.6
GRID     8121           3078.97 -1035.67-1226.6
GRID     8122           3057.2  -1035.67-1226.6
GRID     8123           3057.2  -1048.57-1226.6
GRID     8124           3038.43 -1048.57-1226.6
GRID     8125           3038.43 -1035.67-1226.6
GRID     8126           3038.43 -1022.78-1226.6
GRID     8127           3038.43 -1009.89-1226.6
GRID     8128           3038.43 -997.8  -1226.6
GRID     8129           3094.75 -997.8  -1226.6
GRID     8130           3094.75 -1009.89-1226.6
GRID     8131           3094.75 -1022.78-1226.6
GRID     8132           3094.75 -1035.67-1226.6
GRID     8133           3094.75 -1048.57-1226.6
GRID     8134           3151.07 -997.8  -1226.6
GRID     8135           3132.3  -997.8  -1226.6
GRID     8136           3151.07 -1009.89-1226.6
GRID     8137           3132.3  -1009.89-1226.6
GRID     8138           3151.07 -1022.78-1226.6
GRID     8139           3132.3  -1022.78-1226.6
GRID     8140           3151.07 -1035.67-1226.6
GRID     8141           3132.3  -1035.67-1226.6
GRID     8142           3151.07 -1048.57-1226.6
GRID     8143           3132.3  -1048.57-1226.6
GRID     8144           3113.53 -1048.57-1226.6
GRID     8145           3113.53 -1035.67-1226.6
GRID     8146           3113.53 -1022.78-1226.6
GRID     8147           3113.53 -1009.89-1226.6
GRID     8148           3113.53 -997.8  -1226.6
GRID     8149           3169.85 -997.8  -1226.6
GRID     8150           3169.85 -1009.89-1226.6
GRID     8151           3169.85 -1022.78-1226.6
GRID     8152           3169.85 -1035.67-1226.6
GRID     8153           3169.85 -1048.57-1226.6
GRID     8154           3226.17 -997.8  -1226.6
GRID     8155           3207.4  -997.8  -1226.6
GRID     8156           3226.17 -1009.89-1226.6
GRID     8157           3207.4  -1009.89-1226.6
GRID     8158           3226.17 -1022.78-1226.6
GRID     8159           3207.4  -1022.78-1226.6
GRID     8160           3226.17 -1035.67-1226.6
GRID     8161           3207.4  -1035.67-1226.6
GRID     8162           3226.17 -1048.56-1226.6
GRID     8163           3207.4  -1048.56-1226.6
GRID     8164           3188.63 -1048.56-1226.6
GRID     8165           3188.63 -1035.67-1226.6
GRID     8166           3188.63 -1022.78-1226.6
GRID     8167           3188.63 -1009.89-1226.6
GRID     8168           3188.63 -997.8  -1226.6
GRID     8169           3244.95 -997.8  -1226.6
GRID     8170           3244.95 -1009.89-1226.6
GRID     8171           3244.95 -1022.78-1226.6
GRID     8172           3244.95 -1035.67-1226.6
GRID     8173           3244.95 -1048.56-1226.6
GRID     8174           3464.27 -997.8  -1226.6
GRID     8175           3445.5  -997.8  -1226.6
GRID     8176           3464.27 -1009.89-1226.6
GRID     8177           3445.5  -1009.89-1226.6
GRID     8178           3464.27 -1022.78-1226.6
GRID     8179           3445.5  -1022.78-1226.6
GRID     8180           3464.27 -1035.67-1226.6
GRID     8181           3445.5  -1035.67-1226.6
GRID     8182           3464.27 -1048.56-1226.6
GRID     8183           3445.5  -1048.56-1226.6
GRID     8184           3426.73 -1048.56-1226.6
GRID     8185           3426.73 -1035.67-1226.6
GRID     8186           3426.73 -1022.78-1226.6
GRID     8187           3426.73 -1009.89-1226.6
GRID     8188           3426.73 -997.8  -1226.6
GRID     8189           3483.51 -1009.89-1226.6
GRID     8190           3483.42 -1022.78-1226.6
GRID     8191           3483.33 -1035.67-1226.6
GRID     8192           3407.95 -997.8  -1226.6
GRID     8193           3407.95 -1009.89-1226.6
GRID     8194           3407.95 -1022.78-1226.6
GRID     8195           3407.95 -1035.67-1226.6
GRID     8196           3407.95 -1048.56-1226.6
GRID     8197           3252.83 -997.8  -1226.6
GRID     8198           3252.83 -1009.89-1226.6
GRID     8199           3252.83 -1022.78-1226.6
GRID     8200           3252.83 -1035.67-1226.6
GRID     8201           3387.5  -997.8  -1226.6
GRID     8202           3372.54 -997.8  -1226.6
GRID     8203           3357.57 -997.8  -1226.6
GRID     8204           3342.61 -997.8  -1226.6
GRID     8205           3327.65 -997.8  -1226.6
GRID     8206           3312.69 -997.8  -1226.6
GRID     8207           3297.72 -997.8  -1226.6
GRID     8208           3282.76 -997.8  -1226.6
GRID     8209           3267.8  -997.8  -1226.6
GRID     8210           3387.5  -1009.89-1226.6
GRID     8211           3372.54 -1009.89-1226.6
GRID     8212           3357.58 -1009.89-1226.6
GRID     8213           3342.61 -1009.89-1226.6
GRID     8214           3327.65 -1009.89-1226.6
GRID     8215           3312.69 -1009.89-1226.6
GRID     8216           3297.72 -1009.89-1226.6
GRID     8217           3282.76 -1009.89-1226.6
GRID     8218           3267.8  -1009.89-1226.6
GRID     8219           3387.5  -1022.78-1226.6
GRID     8220           3372.54 -1022.78-1226.6
GRID     8221           3357.57 -1022.78-1226.6
GRID     8222           3342.61 -1022.78-1226.6
GRID     8223           3327.65 -1022.78-1226.6
GRID     8224           3312.69 -1022.78-1226.6
GRID     8225           3297.72 -1022.78-1226.6
GRID     8226           3282.76 -1022.78-1226.6
GRID     8227           3267.8  -1022.78-1226.6
GRID     8228           3387.5  -1035.67-1226.6
GRID     8229           3372.54 -1035.67-1226.6
GRID     8230           3357.57 -1035.67-1226.6
GRID     8231           3342.61 -1035.67-1226.6
GRID     8232           3327.65 -1035.67-1226.6
GRID     8233           3312.69 -1035.67-1226.6
GRID     8234           3297.72 -1035.67-1226.6
GRID     8235           3282.76 -1035.67-1226.6
GRID     8236           3267.8  -1035.67-1226.6
GRID     8237           3387.3  -1045.4 -1226.6
GRID     8238           3372.54 -1048.56-1226.6
GRID     8239           3357.58 -1048.56-1226.6
GRID     8240           3342.61 -1048.56-1226.6
GRID     8241           3327.65 -1048.56-1226.6
GRID     8242           3312.69 -1048.56-1226.6
GRID     8243           3297.72 -1048.56-1226.6
GRID     8244           3282.76 -1048.56-1226.6
GRID     8245           3267.8  -1048.56-1226.6
GRID     8246           2907.   -997.8  -1253.16
GRID     8247           2925.77 -997.8  -1253.16
GRID     8248           2944.55 -997.8  -1253.16
GRID     8249           2963.33 -997.8  -1253.16
GRID     8250           2982.1  -997.8  -1253.16
GRID     8251           3000.87 -997.8  -1253.16
GRID     8252           3019.65 -997.8  -1253.16
GRID     8253           3038.43 -997.8  -1253.16
GRID     8254           3057.2  -997.8  -1253.16
GRID     8255           3075.97 -997.8  -1253.16
GRID     8256           3094.75 -997.8  -1253.16
GRID     8257           3113.53 -997.8  -1253.16
GRID     8258           3132.3  -997.8  -1253.16
GRID     8259           3151.07 -997.8  -1253.16
GRID     8260           3169.85 -997.8  -1253.16
GRID     8261           3188.63 -997.8  -1253.16
GRID     8262           3207.4  -997.8  -1253.16
GRID     8263           3226.17 -997.8  -1253.16
GRID     8264           3244.95 -997.8  -1253.16
GRID     8265           3252.83 -997.8  -1253.16
GRID     8266           3267.8  -997.8  -1253.16
GRID     8267           3282.76 -997.8  -1253.16
GRID     8268           3297.72 -997.8  -1253.16
GRID     8269           3312.69 -997.8  -1253.16
GRID     8270           3327.65 -997.8  -1253.16
GRID     8271           3342.61 -997.8  -1253.16
GRID     8272           3357.57 -997.8  -1253.16
GRID     8273           3372.54 -997.8  -1253.16
GRID     8274           3387.5  -997.8  -1253.16
GRID     8275           3407.95 -997.8  -1253.16
GRID     8276           3426.73 -997.8  -1253.16
GRID     8277           3445.5  -997.8  -1253.16
GRID     8278           3464.27 -997.8  -1253.16
GRID     8279           3483.6  -997.8  -1253.16
GRID     8280           2881.11 -1006.  -1253.16
GRID     8281           2888.23 -1006.  -1253.16
GRID     8282           2907.   -1006.  -1253.16
GRID     8283           2925.77 -1006.  -1253.16
GRID     8284           2944.55 -1006.  -1253.16
GRID     8285           2963.33 -1006.  -1253.16
GRID     8286           2982.1  -1006.  -1253.16
GRID     8287           3000.87 -1006.  -1253.16
GRID     8288           3019.65 -1006.  -1253.16
GRID     8289           3038.43 -1006.  -1253.16
GRID     8290           3057.2  -1006.  -1253.16
GRID     8291           3075.97 -1006.  -1253.16
GRID     8292           3094.75 -1006.  -1253.16
GRID     8293           3113.53 -1006.  -1253.16
GRID     8294           3132.3  -1006.  -1253.16
GRID     8295           3151.07 -1006.  -1253.16
GRID     8296           3169.85 -1006.  -1253.16
GRID     8297           3188.63 -1006.  -1253.16
GRID     8298           3207.4  -1006.  -1253.16
GRID     8299           3226.17 -1006.  -1253.16
GRID     8300           3244.95 -1006.  -1253.16
GRID     8301           3252.83 -1006.  -1253.16
GRID     8302           3267.8  -1006.  -1253.16
GRID     8303           3282.76 -1006.  -1253.16
GRID     8304           3297.72 -1006.  -1253.16
GRID     8305           3312.69 -1006.  -1253.16
GRID     8306           3327.65 -1006.  -1253.16
GRID     8307           3342.61 -1006.  -1253.16
GRID     8308           3357.57 -1006.  -1253.16
GRID     8309           3372.54 -1006.  -1253.16
GRID     8310           3387.5  -1006.  -1253.16
GRID     8311           3407.95 -1006.  -1253.16
GRID     8312           3426.73 -1006.  -1253.16
GRID     8313           3445.5  -1006.  -1253.16
GRID     8314           3464.27 -1006.  -1253.16
GRID     8315           3483.6  -1006.  -1253.16
GRID     8316           3496.07 -997.8  -1241.72
GRID     8317           3426.73 -997.8  -1239.2
GRID     8318           3407.95 -997.8  -1239.2
GRID     8319           3387.5  -997.8  -1239.2
GRID     8320           3372.54 -997.8  -1239.2
GRID     8321           3357.57 -997.8  -1239.2
GRID     8322           3342.61 -997.8  -1239.2
GRID     8323           3327.65 -997.8  -1239.2
GRID     8324           3312.69 -997.8  -1239.2
GRID     8325           3297.72 -997.8  -1239.2
GRID     8326           3282.76 -997.8  -1239.2
GRID     8327           3267.8  -997.8  -1239.2
GRID     8328           3252.83 -997.8  -1239.2
GRID     8329           3244.95 -997.8  -1239.2
GRID     8330           3226.17 -997.8  -1239.2
GRID     8331           3207.4  -997.8  -1239.2
GRID     8332           3188.63 -997.8  -1239.2
GRID     8333           3169.85 -997.8  -1239.2
GRID     8334           3151.07 -997.8  -1239.2
GRID     8335           3132.3  -997.8  -1239.2
GRID     8336           3113.53 -997.8  -1239.2
GRID     8337           3094.75 -997.8  -1239.2
GRID     8338           3075.97 -997.8  -1239.2
GRID     8339           3057.2  -997.8  -1239.2
GRID     8340           3038.43 -997.8  -1239.2
GRID     8341           3019.65 -997.8  -1239.2
GRID     8342           3000.87 -997.8  -1239.2
GRID     8343           2982.1  -997.8  -1239.2
GRID     8344           2963.33 -997.8  -1239.2
GRID     8345           2944.55 -997.8  -1239.2
GRID     8349           2854.   -1009.89-1226.6
GRID     8350           2854.   -1022.78-1226.6
GRID     8351           2854.   -1035.67-1226.6
GRID     8352           2854.   -1048.57-1226.6
GRID     8353           2874.   -997.8  -1253.16
GRID     8358           2888.23 -1062.06-1253.16
GRID     8359           2907.   -1062.06-1253.16
GRID     8360           2925.77 -1062.06-1253.16
GRID     8361           2944.55 -1062.06-1253.16
GRID     8362           2963.33 -1062.06-1253.16
GRID     8363           2982.1  -1062.06-1253.16
GRID     8364           3000.87 -1062.06-1253.16
GRID     8365           3019.65 -1062.06-1253.16
GRID     8366           3038.43 -1062.06-1253.16
GRID     8367           3057.2  -1062.06-1253.16
GRID     8368           3075.97 -1062.06-1253.16
GRID     8369           3094.75 -1062.06-1253.16
GRID     8370           3113.53 -1062.06-1253.16
GRID     8371           3132.3  -1062.06-1253.16
GRID     8372           3151.07 -1062.06-1253.16
GRID     8373           3169.85 -1062.06-1253.16
GRID     8374           3188.63 -1062.06-1253.16
GRID     8375           3207.4  -1062.06-1253.16
GRID     8376           3226.17 -1062.06-1253.16
GRID     8377           3244.95 -1062.06-1253.16
GRID     8378           3252.83 -1062.06-1253.16
GRID     8379           3267.8  -1062.06-1253.16
GRID     8380           3282.76 -1062.06-1253.16
GRID     8381           3297.72 -1062.06-1253.16
GRID     8382           3312.69 -1062.06-1253.16
GRID     8383           3327.65 -1062.06-1253.16
GRID     8384           3342.61 -1062.06-1253.16
GRID     8385           3357.57 -1062.06-1253.16
GRID     8386           3372.54 -1062.06-1253.16
GRID     8387           3387.5  -1062.06-1253.16
GRID     8388           3407.95 -1062.06-1253.16
GRID     8389           3426.73 -1062.06-1253.16
GRID     8390           3445.5  -1062.06-1253.16
GRID     8391           3464.27 -1062.06-1253.16
GRID     8392           3483.6  -1062.06-1253.16
GRID     8398           2963.33 -1052.46-1253.16
GRID     8399           2982.1  -1052.46-1253.16
GRID     8400           3000.87 -1052.46-1253.16
GRID     8401           3019.65 -1052.46-1253.16
GRID     8402           3038.43 -1052.46-1253.16
GRID     8403           3057.2  -1052.46-1253.16
GRID     8404           3075.97 -1052.46-1253.16
GRID     8405           3094.75 -1052.46-1253.16
GRID     8406           3113.53 -1052.46-1253.16
GRID     8407           3132.3  -1052.46-1253.16
GRID     8408           3151.07 -1052.46-1253.16
GRID     8409           3169.85 -1052.46-1253.16
GRID     8410           3188.63 -1052.46-1253.16
GRID     8411           3207.4  -1052.46-1253.16
GRID     8412           3226.17 -1052.46-1253.16
GRID     8413           3244.95 -1052.46-1253.16
GRID     8414           3252.83 -1052.46-1253.16
GRID     8415           3267.8  -1052.46-1253.16
GRID     8416           3282.76 -1052.46-1253.16
GRID     8417           3297.72 -1052.46-1253.16
GRID     8418           3312.69 -1052.46-1253.16
GRID     8419           3327.65 -1052.46-1253.16
GRID     8420           3342.61 -1052.46-1253.16
GRID     8421           3357.57 -1052.46-1253.16
GRID     8422           3372.54 -1052.46-1253.16
GRID     8423           3387.5  -1052.46-1253.16
GRID     8424           3407.95 -1052.46-1253.16
GRID     8425           3426.73 -1052.46-1253.16
GRID     8426           3445.5  -1052.46-1253.16
GRID     8427           3464.27 -1052.46-1253.16
GRID     8428           3483.6  -1052.46-1253.16
GRID     8429           3496.07 -1062.  -1241.72
GRID     8430           3426.73 -1062.06-1239.2
GRID     8431           3407.95 -1062.06-1239.2
GRID     8432           3387.5  -1062.06-1239.2
GRID     8433           3372.54 -1062.06-1239.2
GRID     8434           3357.57 -1062.06-1239.2
GRID     8435           3342.61 -1062.06-1239.2
GRID     8436           3327.65 -1062.06-1239.2
GRID     8437           3312.69 -1062.06-1239.2
GRID     8438           3297.72 -1062.06-1239.2
GRID     8439           3282.76 -1062.06-1239.2
GRID     8440           3267.8  -1062.06-1239.2
GRID     8441           3252.83 -1062.06-1239.2
GRID     8442           3244.95 -1062.06-1239.2
GRID     8443           3226.17 -1062.06-1239.2
GRID     8444           3207.4  -1062.06-1239.2
GRID     8445           3188.63 -1062.06-1239.2
GRID     8446           3169.85 -1062.06-1239.2
GRID     8447           3151.07 -1062.06-1239.2
GRID     8448           3132.3  -1062.06-1239.2
GRID     8449           3113.53 -1062.06-1239.2
GRID     8450           3094.75 -1062.06-1239.2
GRID     8451           3075.97 -1062.06-1239.2
GRID     8452           3057.2  -1062.06-1239.2
GRID     8453           3038.43 -1062.06-1239.2
GRID     8454           3019.65 -1062.06-1239.2
GRID     8455           3000.87 -1062.06-1239.2
GRID     8456           2982.1  -1062.06-1239.2
GRID     8457           2963.33 -1062.06-1239.2
GRID     8458           2944.55 -1062.06-1239.2
GRID     8459           2920.   -1062.06-1239.2
GRID     8460           2905.17 -1062.06-1239.2
GRID     8461           2890.34 -1062.06-1239.2
GRID     8462           2875.5  -1062.06-1239.2
GRID     8463           2874.   -1062.06-1253.16
GRID     8464           2864.   -1062.06-1236.
GRID     8465           3476.16 -1062.06-1239.2
GRID     8466           3491.   -1062.06-1239.2
GRID     8467           3461.33 -1062.06-1239.2
GRID     8468           3446.5  -1062.06-1239.2
GRID     8469           2864.   -997.8  -1226.6
GRID     8470           2874.   -997.8  -1226.6
GRID     8471           2888.23 -997.8  -1253.16
GRID     8472           2880.56 -997.8  -1241.06
GRID     8473           2854.   -997.8  -1226.6
GRID     8474           2864.   -997.8  -1236.
GRID     10001          2869.06 -997.8  -1297.06
GRID     10002          2869.06 -997.8  -1282.22
GRID     10003          2869.06 -997.8  -1267.39
GRID     10004          2869.06 -997.8  -1252.56
GRID     10005          2854.6  -1057.4 -1226.6
GRID     10006          2854.6  -1049.57-1226.6
GRID     10007          2854.6  -1045.55-1226.36
GRID     10008          2854.6  -1033.91-1226.6
GRID     10009          2854.6  -1026.09-1226.6
GRID     10010          2854.6  -1018.26-1226.6
GRID     10011          2854.6  -1010.43-1226.6
GRID     10012          2854.6  -1002.6 -1226.6
GRID     10013          2854.6  -1057.4 -1235.04
GRID     10014          2854.6  -1049.57-1235.29
GRID     10015          2854.6  -1045.55-1235.29
GRID     10016          2854.6  -1033.91-1235.78
GRID     10017          2854.6  -1026.09-1236.02
GRID     10018          2854.6  -1018.26-1236.27
GRID     10019          2854.6  -1010.43-1236.52
GRID     10020          2854.6  -1002.6 -1236.76
GRID     10021          2854.6  -1057.4 -1243.49
GRID     10022          2854.6  -1047.95-1244.1
GRID     10023          2854.6  -1045.55-1244.23
GRID     10024          2854.6  -1033.91-1244.96
GRID     10025          2854.6  -1026.09-1245.45
GRID     10026          2854.6  -1018.26-1245.94
GRID     10027          2854.6  -1010.43-1246.43
GRID     10028          2854.6  -1002.6 -1246.92
GRID     10029          2854.6  -1057.4 -1251.93
GRID     10030          2854.6  -1049.57-1252.67
GRID     10031          2854.6  -1045.55-1253.16
GRID     10032          2854.6  -1033.91-1254.14
GRID     10033          2854.6  -1026.09-1254.88
GRID     10034          2854.6  -1018.26-1255.61
GRID     10035          2854.6  -1010.43-1256.35
GRID     10036          2854.6  -1002.6 -1257.09
GRID     10037          2854.6  -1057.4 -1260.37
GRID     10038          2854.6  -1045.55-1266.77
GRID     10039          2854.6  -1033.91-1263.32
GRID     10040          2854.6  -1026.09-1264.3
GRID     10041          2854.6  -1018.26-1265.29
GRID     10042          2854.6  -1010.43-1266.27
GRID     10043          2854.6  -1002.6 -1267.25
GRID     10044          2854.6  -1057.4 -1268.82
GRID     10045          2854.6  -1049.57-1270.05
GRID     10046          2854.6  -1045.55-1271.04
GRID     10047          2854.6  -1033.91-1272.5
GRID     10048          2854.6  -1026.09-1273.73
GRID     10049          2854.6  -1018.26-1274.96
GRID     10050          2854.6  -1010.43-1276.18
GRID     10051          2854.6  -1002.6 -1277.41
GRID     10052          2854.6  -1057.4 -1277.26
GRID     10053          2854.6  -1049.57-1278.74
GRID     10054          2854.6  -1045.55-1279.97
GRID     10055          2854.6  -1033.91-1281.68
GRID     10056          2854.6  -1026.09-1283.16
GRID     10057          2854.6  -1018.26-1284.63
GRID     10058          2854.6  -1010.43-1286.1
GRID     10059          2854.6  -1002.6 -1287.58
GRID     10060          2854.6  -1057.4 -1285.71
GRID     10061          2854.6  -1047.95-1284.1
GRID     10062          2854.6  -1045.55-1286.6
GRID     10063          2854.6  -1033.91-1290.86
GRID     10064          2854.6  -1026.09-1292.58
GRID     10065          2854.6  -1018.26-1294.3
GRID     10066          2854.6  -1010.43-1296.02
GRID     10067          2854.6  -1002.6 -1297.74
GRID     10068          2854.6  -1057.4 -1294.15
GRID     10069          2854.6  -1049.57-1296.12
GRID     10070          2854.6  -1045.55-1297.84
GRID     10071          2854.6  -1033.91-1300.04
GRID     10072          2854.6  -1026.09-1302.01
GRID     10073          2854.6  -1018.26-1303.97
GRID     10074          2854.6  -1010.43-1305.94
GRID     10075          2854.6  -1002.6 -1307.9
GRID     10076          2854.6  -1057.4 -1302.6
GRID     10077          2854.6  -1047.95-1304.1
GRID     10078          2854.6  -1045.55-1306.6
GRID     10079          2854.6  -1033.91-1309.23
GRID     10080          2854.6  -1026.09-1311.43
GRID     10081          2854.6  -1018.26-1313.64
GRID     10082          2854.6  -1010.43-1315.85
GRID     10083          2854.6  -1002.6 -1318.06
GRID     10084          2854.6  -1057.4 -1311.04
GRID     10085          2854.6  -1049.57-1313.5
GRID     10086          2854.6  -1045.55-1315.71
GRID     10087          2854.6  -1033.91-1318.41
GRID     10088          2854.6  -1026.09-1320.86
GRID     10089          2854.6  -1018.26-1323.32
GRID     10090          2854.6  -1010.43-1325.77
GRID     10091          2854.6  -1002.6 -1328.23
GRID     10092          2854.6  -1057.4 -1319.48
GRID     10093          2854.6  -1049.57-1322.19
GRID     10094          2854.6  -1045.55-1326.6
GRID     10095          2854.6  -1033.91-1327.59
GRID     10096          2854.6  -1026.09-1330.29
GRID     10097          2854.6  -1018.26-1332.99
GRID     10098          2854.6  -1010.43-1335.69
GRID     10099          2854.6  -1002.6 -1338.39
GRID     10100          2854.6  -1057.4 -1327.93
GRID     10101          2854.6  -1049.57-1330.88
GRID     10102          2854.6  -1045.55-1333.58
GRID     10103          2854.6  -1033.91-1336.77
GRID     10104          2854.6  -1026.09-1339.71
GRID     10105          2854.6  -1018.26-1342.66
GRID     10106          2854.6  -1010.43-1345.61
GRID     10107          2854.6  -1002.6 -1348.55
GRID     10108          2854.6  -1057.4 -1336.37
GRID     10109          2854.6  -1049.57-1339.56
GRID     10110          2854.6  -1045.55-1342.52
GRID     10111          2854.6  -1033.91-1345.95
GRID     10112          2854.6  -1026.09-1349.14
GRID     10113          2854.6  -1018.26-1352.33
GRID     10114          2854.6  -1010.43-1355.52
GRID     10115          2854.6  -1002.6 -1358.72
GRID     10116          2854.6  -1057.4 -1344.82
GRID     10117          2854.6  -1049.57-1348.25
GRID     10118          2854.6  -1041.74-1351.69
GRID     10119          2854.6  -1033.91-1355.13
GRID     10120          2854.6  -1026.09-1358.57
GRID     10121          2854.6  -1018.26-1362.
GRID     10122          2854.6  -1010.43-1365.44
GRID     10123          2854.6  -1002.6 -1368.88
GRID     10124          2854.6  -1057.4 -1353.26
GRID     10125          2854.6  -1049.57-1356.94
GRID     10126          2854.6  -1041.74-1360.63
GRID     10127          2854.6  -1033.91-1364.31
GRID     10128          2854.6  -1026.09-1367.99
GRID     10129          2854.6  -1018.26-1371.68
GRID     10130          2854.6  -1010.43-1375.36
GRID     10131          2854.6  -1002.6 -1379.04
GRID     10132          2854.6  -1057.4 -1361.71
GRID     10133          2854.6  -1049.57-1365.63
GRID     10134          2854.6  -1041.74-1369.56
GRID     10135          2854.6  -1033.91-1373.49
GRID     10136          2854.6  -1026.09-1377.42
GRID     10137          2854.6  -1018.26-1381.35
GRID     10138          2854.6  -1010.43-1385.28
GRID     10139          2854.6  -1002.6 -1389.2
GRID     10140          2854.6  -1057.4 -1370.15
GRID     10141          2854.6  -1049.57-1374.32
GRID     10142          2854.6  -1041.74-1378.5
GRID     10143          2854.6  -1033.91-1382.67
GRID     10144          2854.6  -1026.09-1386.85
GRID     10145          2854.6  -1018.26-1391.02
GRID     10146          2854.6  -1010.43-1395.19
GRID     10147          2854.6  -1002.6 -1399.37
GRID     10148          2854.6  -1057.4 -1378.59
GRID     10149          2854.6  -1049.57-1383.01
GRID     10150          2854.6  -1041.74-1387.43
GRID     10151          2854.6  -1033.91-1391.85
GRID     10152          2854.6  -1026.09-1396.27
GRID     10153          2854.6  -1018.26-1400.69
GRID     10154          2854.6  -1010.43-1405.11
GRID     10155          2854.6  -1002.6 -1409.53
GRID     10156          2854.6  -1057.4 -1387.04
GRID     10157          2854.6  -1049.57-1391.7
GRID     10158          2854.6  -1041.74-1396.37
GRID     10159          2854.6  -1033.91-1401.03
GRID     10160          2854.6  -1026.09-1405.7
GRID     10161          2854.6  -1018.26-1410.36
GRID     10162          2854.6  -1010.43-1415.03
GRID     10163          2854.6  -1002.6 -1419.69
GRID     10164          2854.6  -1057.4 -1395.48
GRID     10165          2854.6  -1049.57-1400.39
GRID     10166          2854.6  -1041.74-1405.3
GRID     10167          2854.6  -1033.91-1410.21
GRID     10168          2854.6  -1026.09-1415.13
GRID     10169          2854.6  -1018.26-1420.04
GRID     10170          2854.6  -1010.43-1424.95
GRID     10171          2854.6  -1002.6 -1429.86
GRID     10172          2854.6  -1057.4 -1403.93
GRID     10173          2854.6  -1049.57-1409.08
GRID     10174          2854.6  -1041.74-1414.24
GRID     10175          2854.6  -1033.91-1419.4
GRID     10176          2854.6  -1026.09-1424.55
GRID     10177          2854.6  -1018.26-1429.71
GRID     10178          2854.6  -1010.43-1434.86
GRID     10179          2854.6  -1002.6 -1440.02
GRID     10180          2854.6  -1057.4 -1412.37
GRID     10181          2854.6  -1049.57-1417.77
GRID     10182          2854.6  -1041.74-1423.17
GRID     10183          2854.6  -1033.91-1428.58
GRID     10184          2854.6  -1026.09-1433.98
GRID     10185          2854.6  -1018.26-1439.38
GRID     10186          2854.6  -1010.43-1444.78
GRID     10187          2854.6  -1002.6 -1450.18
GRID     10188          2854.6  -1057.4 -1420.82
GRID     10189          2854.6  -1050.4 -1424.33
GRID     10190          2854.6  -1041.74-1432.11
GRID     10191          2854.6  -1033.91-1437.76
GRID     10192          2854.6  -1026.09-1445.4
GRID     10193          2854.6  -1018.26-1453.05
GRID     10194          2854.6  -1009.6 -1461.44
GRID     10195          2854.6  -1002.6 -1464.35
GRID     10196          2854.6  -1057.4 -1429.26
GRID     10197          2854.6  -1049.57-1435.15
GRID     10198          2854.6  -1041.74-1441.05
GRID     10199          2854.6  -1033.91-1446.94
GRID     10200          2854.6  -1026.09-1454.83
GRID     10201          2854.6  -1018.26-1462.72
GRID     10202          2854.6  -1010.43-1468.62
GRID     10203          2854.6  -1002.6 -1474.51
GRID     10204          2854.6  -1057.4 -1437.7
GRID     10205          2854.6  -1050.4 -1444.33
GRID     10206          2854.6  -1041.74-1449.98
GRID     10207          2854.6  -1033.91-1458.12
GRID     10208          2854.6  -1026.09-1466.26
GRID     10209          2854.6  -1018.26-1473.4
GRID     10210          2854.6  -1009.6 -1481.44
GRID     10211          2854.6  -1002.6 -1486.67
GRID     10212          2854.6  -1057.4 -1446.15
GRID     10213          2854.6  -1049.57-1452.53
GRID     10214          2854.6  -1041.74-1460.92
GRID     10215          2854.6  -1033.91-1469.3
GRID     10216          2854.6  -1026.09-1475.68
GRID     10217          2854.6  -1018.26-1482.07
GRID     10218          2854.6  -1010.43-1488.45
GRID     10219          2854.6  -1002.6 -1494.83
GRID     10220          2854.6  -1057.4 -1457.7
GRID     10221          2854.6  -1050.4 -1464.33
GRID     10222          2854.6  -1041.74-1470.96
GRID     10223          2854.6  -1033.91-1477.59
GRID     10224          2854.6  -1026.09-1486.22
GRID     10225          2854.6  -1018.26-1494.85
GRID     10226          2854.6  -1009.6 -1501.44
GRID     10227          2854.6  -1002.6 -1508.11
GRID     10228          2854.6  -1057.4 -1463.04
GRID     10229          2854.6  -1049.57-1470.91
GRID     10230          2854.6  -1041.74-1476.79
GRID     10231          2854.6  -1033.91-1485.66
GRID     10232          2854.6  -1026.09-1494.54
GRID     10233          2854.6  -1018.26-1501.41
GRID     10234          2854.6  -1010.43-1508.29
GRID     10235          2854.6  -1002.6 -1515.16
GRID     10236          2854.6  -1057.4 -1471.48
GRID     10237          2854.6  -1049.57-1478.6
GRID     10238          2854.6  -1041.74-1485.72
GRID     10239          2854.6  -1033.91-1492.84
GRID     10240          2854.6  -1026.09-1499.96
GRID     10241          2854.6  -1018.26-1507.08
GRID     10242          2854.6  -1010.43-1514.2
GRID     10243          2854.6  -1002.6 -1521.32
GRID     10244          2859.6  -997.8  -1232.2
GRID     10245          2859.6  -997.8  -1242.34
GRID     10246          2859.6  -997.8  -1252.49
GRID     10247          2859.6  -997.8  -1262.63
GRID     10248          2859.6  -997.8  -1272.78
GRID     10249          2859.6  -997.8  -1282.93
GRID     10250          2859.6  -997.8  -1293.07
GRID     10251          2859.6  -997.8  -1303.22
GRID     10252          2859.6  -997.8  -1313.36
GRID     10253          2859.6  -997.8  -1323.51
GRID     10254          2859.6  -997.8  -1333.65
GRID     10255          2859.6  -997.8  -1343.8
GRID     10256          2859.6  -997.8  -1353.94
GRID     10257          2859.6  -997.8  -1364.09
GRID     10258          2859.6  -997.8  -1374.23
GRID     10259          2859.6  -997.8  -1384.38
GRID     10260          2859.6  -997.8  -1394.53
GRID     10261          2859.6  -997.8  -1404.67
GRID     10263          2859.6  -997.8  -1414.82
GRID     10265          2859.6  -997.8  -1424.96
GRID     10267          2859.6  -997.8  -1435.11
GRID     10269          2859.6  -997.8  -1445.25
GRID     10271          2859.6  -997.8  -1455.4
GRID     10272          2859.6  -997.8  -1465.54
GRID     10274          2859.6  -997.8  -1475.69
GRID     10276          2859.6  -997.8  -1485.83
GRID     10278          2859.6  -997.8  -1495.98
GRID     10280          2859.6  -997.8  -1506.13
GRID     10282          2859.6  -997.8  -1516.27
GRID     10285          2859.6  -997.8  -1526.42
GRID     10286          2868.   -997.8  -1240.6
GRID     10287          2876.4  -997.8  -1249.
GRID     10288          2876.4  -997.8  -1258.56
GRID     10289          2868.   -997.8  -1260.31
GRID     10290          2876.4  -997.8  -1268.13
GRID     10291          2876.4  -997.8  -1277.7
GRID     10292          2876.4  -997.8  -1287.26
GRID     10293          2868.   -997.8  -1286.74
GRID     10294          2876.4  -997.8  -1296.83
GRID     10295          2876.4  -997.8  -1306.39
GRID     10296          2868.   -997.8  -1309.59
GRID     10297          2876.4  -997.8  -1315.96
GRID     10298          2868.   -997.8  -1319.44
GRID     10299          2876.4  -997.8  -1325.53
GRID     10300          2868.   -997.8  -1329.3
GRID     10301          2876.4  -997.8  -1335.09
GRID     10302          2868.   -997.8  -1339.16
GRID     10303          2876.4  -997.8  -1344.66
GRID     10304          2868.   -997.8  -1349.01
GRID     10305          2876.4  -997.8  -1354.23
GRID     10306          2868.   -997.8  -1358.87
GRID     10307          2876.4  -997.8  -1363.79
GRID     10308          2868.   -997.8  -1368.72
GRID     10309          2876.4  -997.8  -1373.36
GRID     10310          2868.   -997.8  -1378.58
GRID     10311          2876.4  -997.8  -1382.92
GRID     10312          2868.   -997.8  -1388.44
GRID     10313          2876.4  -997.8  -1392.49
GRID     10314          2868.   -997.8  -1398.29
GRID     10315          2876.4  -997.8  -1402.06
GRID     10316          2868.   -997.8  -1408.15
GRID     10317          2876.4  -997.8  -1411.62
GRID     10319          2868.   -997.8  -1418.
GRID     10320          2876.4  -997.8  -1421.19
GRID     10322          2868.   -997.8  -1427.86
GRID     10323          2876.4  -997.8  -1430.76
GRID     10325          2868.   -997.8  -1437.71
GRID     10326          2876.4  -997.8  -1440.32
GRID     10328          2868.   -997.8  -1447.57
GRID     10329          2876.4  -997.8  -1449.89
GRID     10331          2868.   -997.8  -1457.43
GRID     10332          2876.4  -997.8  -1459.45
GRID     10334          2868.   -997.8  -1467.28
GRID     10335          2876.4  -997.8  -1469.02
GRID     10337          2868.   -997.8  -1477.14
GRID     10338          2876.4  -997.8  -1478.59
GRID     10340          2868.   -997.8  -1486.99
GRID     10341          2876.4  -997.8  -1488.15
GRID     10343          2868.   -997.8  -1496.85
GRID     10344          2876.4  -997.8  -1497.72
GRID     10346          2868.   -997.8  -1506.71
GRID     10347          2876.4  -997.8  -1507.28
GRID     10349          2868.   -997.8  -1516.56
GRID     10350          2876.4  -997.8  -1516.85
GRID     10352          2868.   -997.8  -1526.42
GRID     10353          2876.4  -997.8  -1526.42
GRID     10354          2881.2  -1002.6 -1254.6
GRID     10355          2881.2  -1002.6 -1263.8
GRID     10356          2881.2  -1002.6 -1272.99
GRID     10357          2881.2  -1002.6 -1282.19
GRID     10358          2881.2  -1002.6 -1291.39
GRID     10359          2881.2  -1002.6 -1300.58
GRID     10360          2881.2  -1002.6 -1309.78
GRID     10361          2881.2  -1002.6 -1318.98
GRID     10362          2881.2  -1002.6 -1328.18
GRID     10363          2881.2  -1002.6 -1337.37
GRID     10364          2881.2  -1002.6 -1346.57
GRID     10365          2881.2  -1002.6 -1355.77
GRID     10366          2881.2  -1002.6 -1364.97
GRID     10367          2881.2  -1002.6 -1374.16
GRID     10368          2881.2  -1002.6 -1383.36
GRID     10369          2881.2  -1002.6 -1392.56
GRID     10370          2881.2  -1002.6 -1401.76
GRID     10371          2881.2  -1002.6 -1410.95
GRID     10372          2881.2  -1002.6 -1420.15
GRID     10373          2881.2  -1002.6 -1429.35
GRID     10374          2881.2  -1002.6 -1438.55
GRID     10376          2881.2  -1002.6 -1447.74
GRID     10378          2881.2  -1002.6 -1456.94
GRID     10380          2881.2  -1002.6 -1466.14
GRID     10382          2881.2  -1002.6 -1475.34
GRID     10384          2881.2  -1002.6 -1484.53
GRID     10386          2881.2  -1002.6 -1493.73
GRID     10388          2881.2  -1002.6 -1502.93
GRID     10390          2881.2  -1002.6 -1512.13
GRID     10392          2881.2  -1002.6 -1521.32
GRID     10393          2881.2  -1006.  -1254.6
GRID     10394          2881.2  -1006.  -1263.69
GRID     10395          2881.2  -1006.  -1272.78
GRID     10396          2881.2  -1006.  -1281.87
GRID     10397          2881.2  -1006.  -1290.96
GRID     10398          2881.2  -1006.  -1300.05
GRID     10399          2881.2  -1006.  -1309.14
GRID     10400          2881.2  -1006.  -1318.23
GRID     10401          2881.2  -1006.  -1327.32
GRID     10402          2881.2  -1006.  -1336.41
GRID     10403          2881.2  -1006.  -1345.51
GRID     10404          2881.2  -1006.  -1354.6
GRID     10405          2881.2  -1006.  -1363.69
GRID     10406          2881.2  -1006.  -1372.78
GRID     10407          2881.2  -1006.  -1381.87
GRID     10408          2881.2  -1006.  -1390.96
GRID     10409          2881.2  -1006.  -1400.05
GRID     10410          2881.2  -1006.  -1409.14
GRID     10411          2881.2  -1006.  -1418.23
GRID     10412          2881.2  -1006.  -1427.32
GRID     10413          2881.2  -1006.  -1436.41
GRID     10414          2881.2  -1006.  -1445.5
GRID     10416          2881.2  -1006.  -1454.6
GRID     10418          2881.2  -1006.  -1463.69
GRID     10420          2881.2  -1006.  -1472.78
GRID     10422          2881.2  -1006.  -1481.87
GRID     10424          2881.2  -1006.  -1490.96
GRID     10426          2881.2  -1006.  -1500.05
GRID     10428          2881.2  -1006.  -1509.14
GRID     10430          2881.2  -1006.  -1518.23
GRID     10431          2859.6  -1062.2 -1232.2
GRID     10432          2859.6  -1062.2 -1240.27
GRID     10433          2859.6  -1062.2 -1248.35
GRID     10434          2859.6  -1062.2 -1256.42
GRID     10435          2859.6  -1062.2 -1264.5
GRID     10436          2859.6  -1062.2 -1272.58
GRID     10437          2859.6  -1062.2 -1280.65
GRID     10438          2859.6  -1062.2 -1288.73
GRID     10439          2859.6  -1062.2 -1296.8
GRID     10440          2859.6  -1062.2 -1304.88
GRID     10441          2859.6  -1062.2 -1312.95
GRID     10442          2859.6  -1062.2 -1321.03
GRID     10443          2859.6  -1062.2 -1329.1
GRID     10444          2859.6  -1062.2 -1337.18
GRID     10445          2859.6  -1062.2 -1345.26
GRID     10446          2859.6  -1062.2 -1353.33
GRID     10447          2859.6  -1062.2 -1361.41
GRID     10448          2859.6  -1062.2 -1369.48
GRID     10449          2859.6  -1062.2 -1377.56
GRID     10450          2859.6  -1062.2 -1385.63
GRID     10451          2859.6  -1062.2 -1393.71
GRID     10452          2859.6  -1062.2 -1401.78
GRID     10454          2859.6  -1062.2 -1409.86
GRID     10456          2859.6  -1062.2 -1417.93
GRID     10458          2859.6  -1062.2 -1426.01
GRID     10460          2859.6  -1062.2 -1434.09
GRID     10462          2859.6  -1062.2 -1442.16
GRID     10464          2859.6  -1062.2 -1450.24
GRID     10466          2859.6  -1062.2 -1458.31
GRID     10468          2859.6  -1062.2 -1466.39
GRID     10470          2876.4  -1062.2 -1458.89
GRID     10471          2876.4  -1062.2 -1451.4
GRID     10472          2876.4  -1062.2 -1443.9
GRID     10473          2876.4  -1062.2 -1321.49
GRID     10474          2881.2  -1057.4 -1325.49
GRID     10475          2881.2  -1057.4 -1471.48
GRID     10476          2881.2  -1057.4 -1335.22
GRID     10477          2881.2  -1057.4 -1344.96
GRID     10478          2881.2  -1057.4 -1354.69
GRID     10479          2881.2  -1057.4 -1364.42
GRID     10480          2881.2  -1057.4 -1374.15
GRID     10481          2881.2  -1057.4 -1383.89
GRID     10482          2881.2  -1057.4 -1393.62
GRID     10483          2881.2  -1057.4 -1403.35
GRID     10484          2881.2  -1057.4 -1413.08
GRID     10485          2881.2  -1057.4 -1422.82
GRID     10486          2881.2  -1057.4 -1432.55
GRID     10487          2881.2  -1057.4 -1442.28
GRID     10488          2881.2  -1057.4 -1452.02
GRID     10489          2881.2  -1057.4 -1461.75
GRID     10490          2876.41 -1062.2 -1466.39
GRID     10492          2876.4  -1062.2 -1436.4
GRID     10493          2876.4  -1062.2 -1418.09
GRID     10494          2876.4  -1062.2 -1406.42
GRID     10495          2876.4  -1062.2 -1398.77
GRID     10496          2876.4  -1062.2 -1389.11
GRID     10497          2876.4  -1062.2 -1379.45
GRID     10498          2876.4  -1062.2 -1368.94
GRID     10499          2876.4  -1062.2 -1360.13
GRID     10500          2876.4  -1062.2 -1350.47
GRID     10501          2876.4  -1062.2 -1340.81
GRID     10502          2876.4  -1062.2 -1331.15
GRID     10504          2868.   -1062.2 -1466.39
GRID     10507          2868.   -1062.2 -1458.6
GRID     10510          2868.   -1062.2 -1450.82
GRID     10513          2868.   -1062.2 -1443.03
GRID     10516          2868.   -1062.2 -1435.24
GRID     10518          2876.4  -1062.2 -1428.91
GRID     10519          2868.   -1062.2 -1427.46
GRID     10521          2876.4  -1062.2 -1421.41
GRID     10522          2868.   -1062.2 -1419.67
GRID     10525          2868.   -1062.2 -1411.89
GRID     10528          2868.   -1062.2 -1404.1
GRID     10530          2868.   -1062.2 -1396.31
GRID     10532          2868.   -1062.2 -1388.53
GRID     10534          2868.   -1062.2 -1380.74
GRID     10536          2868.   -1062.2 -1372.96
GRID     10538          2868.   -1062.2 -1365.17
GRID     10540          2868.   -1062.2 -1357.38
GRID     10542          2868.   -1062.2 -1349.6
GRID     10544          2868.   -1062.2 -1341.81
GRID     10546          2868.   -1062.2 -1334.03
GRID     10548          2868.   -1062.2 -1326.24
GRID     10550          2868.   -1062.2 -1318.46
GRID     10551          2876.4  -1062.2 -1316.46
GRID     10552          2868.   -1062.2 -1310.67
GRID     10553          2876.4  -1062.2 -1308.96
GRID     10554          2868.   -1062.2 -1302.88
GRID     10555          2876.4  -1062.2 -1301.47
GRID     10556          2868.   -1062.2 -1295.1
GRID     10557          2876.4  -1062.2 -1293.97
GRID     10558          2868.   -1062.2 -1287.31
GRID     10559          2876.4  -1062.2 -1286.48
GRID     10560          2868.   -1062.2 -1279.53
GRID     10561          2854.6  -1047.95-1264.27
GRID     10562          2876.4  -1062.2 -1278.98
GRID     10563          2868.   -1062.2 -1271.74
GRID     10564          2876.4  -1062.2 -1271.48
GRID     10565          2868.   -1062.2 -1263.95
GRID     10566          2876.4  -1062.2 -1263.99
GRID     10567          2868.   -1062.2 -1256.17
GRID     10568          2876.4  -1062.2 -1256.49
GRID     10569          2868.   -1062.2 -1248.38
GRID     10570          2876.4  -1062.2 -1248.99
GRID     10571          2868.   -1062.2 -1240.6
GRID     10572          2881.2  -1054.  -1327.49
GRID     10573          2881.2  -1054.  -1337.3
GRID     10574          2881.2  -1054.  -1347.1
GRID     10575          2881.2  -1054.  -1356.91
GRID     10576          2881.2  -1054.  -1366.71
GRID     10577          2881.2  -1054.  -1376.52
GRID     10578          2881.2  -1054.  -1386.32
GRID     10579          2881.2  -1054.  -1396.13
GRID     10580          2881.2  -1054.  -1405.93
GRID     10581          2881.2  -1054.  -1415.74
GRID     10582          2881.2  -1054.  -1425.55
GRID     10583          2881.2  -1054.  -1435.35
GRID     10584          2881.2  -1054.  -1445.16
GRID     10586          2881.2  -1054.  -1454.96
GRID     10588          2881.2  -1054.  -1464.77
GRID     10590          2881.2  -1054.  -1474.57
GRID     12000          3513.1  -1062.2 -1228.95
GRID     12001          3513.1  -1062.2 -1248.1
GRID     12002          3513.1  -1062.2 -1262.93
GRID     12003          3513.1  -1062.2 -1277.77
GRID     12004          3513.1  -1062.2 -1292.6
GRID     12005          3513.1  -1062.2 -1306.6
GRID     12006          3513.1  -1062.2 -1321.6
GRID     12007          3513.1  -1062.2 -1336.6
GRID     12008          3513.1  -1062.2 -1351.6
GRID     12009          3513.1  -1062.2 -1368.9
GRID     12010          3513.1  -1062.2 -1386.2
GRID     12011          3513.1  -1062.2 -1403.5
GRID     12012          3513.1  -1062.2 -1420.8
GRID     12013          3513.1  -1062.2 -1438.1
GRID     12014          3513.1  -1062.2 -1455.4
GRID     12015          3513.1  -1062.2 -1503.4
GRID     12016          3513.1  -1062.2 -1471.4
GRID     12017          3513.1  -1062.2 -1487.4
GRID     12018          3513.1  -1062.2 -1511.6
GRID     12019          3513.1  -1062.2 -1565.7
GRID     12020          3513.1  -1062.2 -1525.12
GRID     12021          3513.1  -1062.2 -1538.65
GRID     12022          3513.1  -1062.2 -1552.17
GRID     12023          3513.14 -1057.  -1632.69
GRID     12024          3513.14 -1057.  -1647.88
GRID     12025          3513.1  -1062.2 -1582.34
GRID     12026          3513.1  -1062.2 -1598.97
GRID     12027          3513.1  -1062.2 -1615.61
GRID     12028          3513.14 -1057.  -1657.29
GRID     12029          3513.14 -1057.  -1691.22
GRID     12030          3513.14 -1057.  -1669.34
GRID     12031          3513.14 -1057.  -1681.39
GRID     12032          3513.14 -1057.  -1698.55
GRID     12033          3513.14 -1046.81-1226.6
GRID     12034          3513.14 -1046.81-1243.63
GRID     12035          3513.14 -1046.81-1260.12
GRID     12036          3513.14 -1046.8 -1277.5
GRID     12038          3513.14 -1046.81-1306.6
GRID     12039          3513.14 -1046.81-1321.6
GRID     12040          3513.14 -1046.81-1336.6
GRID     12041          3513.14 -1046.81-1351.6
GRID     12042          3513.14 -1046.81-1368.9
GRID     12043          3513.14 -1046.81-1386.2
GRID     12044          3513.14 -1046.81-1403.5
GRID     12045          3513.14 -1046.81-1420.8
GRID     12046          3513.14 -1046.81-1438.1
GRID     12047          3513.14 -1046.01-1455.4
GRID     12048          3513.14 -1046.01-1503.4
GRID     12049          3513.14 -1046.01-1471.4
GRID     12050          3513.14 -1046.01-1487.4
GRID     12051          3513.14 -1046.01-1511.6
GRID     12052          3513.14 -1046.01-1565.7
GRID     12053          3513.14 -1046.01-1525.12
GRID     12054          3513.14 -1046.01-1538.65
GRID     12055          3513.14 -1046.01-1552.17
GRID     12056          3513.14 -1046.01-1632.25
GRID     12057          3513.14 -1046.01-1582.33
GRID     12058          3513.14 -1046.01-1598.97
GRID     12059          3513.14 -1046.01-1615.61
GRID     12060          3513.14 -1046.01-1647.5
GRID     12061          3513.14 -1046.01-1656.95
GRID     12062          3513.14 -1046.01-1693.25
GRID     12063          3513.14 -1046.01-1669.05
GRID     12064          3513.14 -1046.01-1681.15
GRID     12065          3513.14 -1046.12-1704.57
GRID     12066          3513.14 -1035.75-1700.83
GRID     12067          3513.14 -1030.31-1226.6
GRID     12068          3513.14 -1030.31-1276.6
GRID     12069          3513.14 -1030.31-1243.63
GRID     12070          3513.14 -1030.31-1260.12
GRID     12071          3513.14 -1030.31-1291.6
GRID     12072          3513.14 -1030.31-1306.6
GRID     12073          3513.14 -1030.31-1321.6
GRID     12074          3513.14 -1030.31-1351.6
GRID     12075          3513.14 -1030.31-1336.6
GRID     12076          3513.14 -1030.31-1368.9
GRID     12077          3513.14 -1030.31-1386.2
GRID     12078          3513.14 -1030.31-1403.5
GRID     12079          3513.14 -1030.31-1420.8
GRID     12080          3513.14 -1030.31-1438.1
GRID     12081          3513.14 -1030.31-1455.4
GRID     12082          3513.14 -1030.31-1503.4
GRID     12083          3513.14 -1030.31-1471.4
GRID     12084          3513.14 -1030.31-1487.4
GRID     12085          3513.14 -1030.31-1511.6
GRID     12086          3513.14 -1030.31-1565.7
GRID     12087          3513.14 -1030.31-1525.12
GRID     12088          3513.14 -1030.31-1538.65
GRID     12089          3513.14 -1030.31-1552.17
GRID     12090          3513.14 -1030.31-1632.25
GRID     12091          3513.14 -1030.31-1598.97
GRID     12092          3513.14 -1030.31-1615.61
GRID     12093          3513.14 -1030.31-1647.5
GRID     12094          3513.14 -1030.31-1582.33
GRID     12095          3513.14 -1030.31-1656.95
GRID     12096          3513.14 -1030.31-1681.15
GRID     12097          3513.14 -1017.85-1678.25
GRID     12098          3513.14 -1030.31-1669.05
GRID     12099          3513.14 -1031.12-1693.31
GRID     12100          3513.14 -1014.01-1226.6
GRID     12101          3513.14 -1014.01-1243.63
GRID     12102          3513.14 -1014.01-1260.12
GRID     12103          3513.14 -1014.01-1276.6
GRID     12104          3513.14 -1014.01-1291.6
GRID     12105          3513.14 -1014.01-1306.6
GRID     12106          3513.14 -1014.01-1321.6
GRID     12107          3513.14 -1014.01-1336.6
GRID     12108          3513.14 -1014.01-1351.6
GRID     12109          3513.14 -1014.01-1368.9
GRID     12110          3513.14 -1014.01-1386.2
GRID     12111          3513.14 -1014.01-1403.5
GRID     12112          3513.14 -1014.01-1420.8
GRID     12113          3513.14 -1014.01-1438.1
GRID     12114          3513.14 -1014.01-1565.7
GRID     12115          3513.14 -1014.01-1503.4
GRID     12116          3513.14 -1014.01-1471.4
GRID     12117          3513.14 -1014.01-1487.4
GRID     12118          3513.14 -1014.01-1511.6
GRID     12119          3513.14 -1014.01-1525.12
GRID     12120          3513.14 -1014.01-1538.65
GRID     12121          3513.14 -1014.01-1552.17
GRID     12122          3513.14 -1014.01-1455.4
GRID     12123          3513.14 -1014.01-1582.33
GRID     12124          3513.14 -1014.01-1632.25
GRID     12125          3513.14 -1014.01-1598.97
GRID     12126          3513.14 -1014.01-1615.61
GRID     12127          3513.14 -1014.01-1647.5
GRID     12128          3513.14 -1014.01-1656.95
GRID     12129          3513.14 -1008.93-1668.13
GRID     12130          3513.1  -997.8  -1306.6
GRID     12131          3513.1  -997.8  -1321.6
GRID     12132          3513.1  -997.8  -1336.6
GRID     12133          3513.1  -997.8  -1351.6
GRID     12134          3513.1  -997.8  -1368.9
GRID     12135          3513.1  -997.8  -1386.2
GRID     12136          3513.1  -997.8  -1403.5
GRID     12137          3513.1  -997.8  -1420.8
GRID     12138          3513.1  -997.8  -1438.1
GRID     12139          3513.1  -997.8  -1455.4
GRID     12140          3513.1  -997.8  -1511.6
GRID     12141          3513.1  -997.8  -1503.4
GRID     12142          3513.1  -997.8  -1525.12
GRID     12143          3513.1  -997.8  -1538.65
GRID     12144          3513.1  -997.8  -1552.17
GRID     12145          3513.1  -997.8  -1565.7
GRID     12146          3513.1  -997.8  -1471.4
GRID     12147          3513.1  -997.8  -1487.4
GRID     12148          3513.1  -997.8  -1615.61
GRID     12149          3513.1  -997.8  -1582.33
GRID     12150          3513.1  -997.8  -1632.25
GRID     12151          3513.1  -997.8  -1598.97
GRID     12152          3513.1  -997.8  -1647.5
GRID     12154          3513.1  -997.8  -1248.1
GRID     12155          3513.1  -997.8  -1277.77
GRID     12156          3513.1  -997.8  -1292.6
GRID     12157          3513.1  -997.8  -1228.95
GRID     12158          3513.1  -997.8  -1262.93
GRID     12159          3497.94 -997.8  -1538.65
GRID     12160          3497.94 -997.8  -1552.17
GRID     12161          3496.33 -997.8  -1563.71
GRID     12162          3495.94 -1062.2 -1248.1
GRID     12163          3495.94 -1062.2 -1262.93
GRID     12164          3495.94 -1062.2 -1277.77
GRID     12165          3495.94 -1062.2 -1292.6
GRID     12166          3495.94 -1062.2 -1236.6
GRID     12167          3495.94 -1062.2 -1306.6
GRID     12168          3497.94 -1062.2 -1321.6
GRID     12169          3497.94 -1062.2 -1336.6
GRID     12170          3497.94 -1062.2 -1368.9
GRID     12171          3497.94 -1062.2 -1386.2
GRID     12172          3497.94 -1062.2 -1403.5
GRID     12173          3497.94 -1062.2 -1420.8
GRID     12174          3497.94 -1062.2 -1351.6
GRID     12175          3497.94 -1062.2 -1438.1
GRID     12176          3497.94 -1062.2 -1455.4
GRID     12177          3497.94 -1062.2 -1563.45
GRID     12178          3497.94 -1062.2 -1552.17
GRID     12179          3497.94 -1062.2 -1538.65
GRID     12180          3497.94 -1062.2 -1525.12
GRID     12181          3497.94 -1062.2 -1511.6
GRID     12182          3497.94 -1062.2 -1503.4
GRID     12183          3497.94 -1062.2 -1487.4
GRID     12184          3497.94 -1062.2 -1471.4
GRID     12185          3501.51 -1062.2 -1581.62
GRID     12186          3504.79 -1062.2 -1597.75
GRID     12187          3508.07 -1062.2 -1613.89
GRID     12188          3486.74 -1062.2 -1246.6
GRID     12189          3486.74 -1062.2 -1262.93
GRID     12190          3486.74 -1062.2 -1277.77
GRID     12191          3486.74 -1062.2 -1292.6
GRID     12192          3486.74 -1062.2 -1306.6
GRID     12193          3486.74 -1062.2 -1321.6
GRID     12194          3486.74 -1062.2 -1336.6
GRID     12195          3486.74 -1062.2 -1351.6
GRID     12196          3486.74 -1062.2 -1368.9
GRID     12197          3486.74 -1062.2 -1386.2
GRID     12198          3486.74 -1062.2 -1403.5
GRID     12199          3486.74 -1062.2 -1420.8
GRID     12200          3486.74 -1062.2 -1438.1
GRID     12201          3486.74 -1062.2 -1455.4
GRID     12203          3495.18 -1062.2 -1550.46
GRID     12204          3492.54 -1062.2 -1537.47
GRID     12205          3486.74 -1062.2 -1525.12
GRID     12206          3486.74 -1062.2 -1511.6
GRID     12207          3486.74 -1062.2 -1503.4
GRID     12208          3486.74 -1062.2 -1487.4
GRID     12209          3486.74 -1062.2 -1471.4
GRID     12210          3497.44 -997.8  -1252.56
GRID     12211          3497.44 -997.8  -1267.39
GRID     12212          3497.44 -997.8  -1282.22
GRID     12213          3497.44 -997.8  -1297.06
GRID     12214          3499.94 -997.8  -1303.45
GRID     12215          3497.94 -997.8  -1321.6
GRID     12216          3497.94 -997.8  -1336.6
GRID     12217          3497.94 -997.8  -1351.6
GRID     12218          3497.94 -997.8  -1368.9
GRID     12219          3497.94 -997.8  -1386.2
GRID     12220          3497.94 -997.8  -1403.5
GRID     12221          3497.94 -997.8  -1420.8
GRID     12222          3497.94 -997.8  -1438.1
GRID     12223          3497.94 -997.8  -1455.4
GRID     12224          3497.94 -997.8  -1471.4
GRID     12225          3497.94 -997.8  -1487.4
GRID     12226          3497.94 -997.8  -1503.4
GRID     12227          3497.94 -997.8  -1511.6
GRID     12228          3497.94 -997.8  -1525.12
GRID     12229          3499.42 -997.8  -1582.89
GRID     12230          3502.05 -997.8  -1599.18
GRID     12231          3504.68 -997.8  -1615.47
GRID     12232          3507.31 -997.8  -1631.76
GRID     12233          3509.71 -997.8  -1646.69
GRID     12234          3486.78 -997.8  -1253.67
GRID     12235          3486.78 -997.8  -1262.93
GRID     12236          3486.78 -997.8  -1277.77
GRID     12237          3486.78 -997.8  -1292.6
GRID     12238          3486.78 -997.8  -1306.6
GRID     12239          3486.78 -997.8  -1321.6
GRID     12240          3486.78 -997.8  -1336.6
GRID     12241          3486.78 -997.8  -1351.6
GRID     12242          3486.78 -997.8  -1368.9
GRID     12243          3486.78 -997.8  -1386.2
GRID     12244          3486.78 -997.8  -1403.5
GRID     12245          3486.78 -997.8  -1420.8
GRID     12246          3486.78 -997.8  -1438.1
GRID     12247          3486.78 -997.8  -1455.4
GRID     12248          3486.78 -997.8  -1471.4
GRID     12249          3486.78 -997.8  -1487.4
GRID     12250          3486.78 -997.8  -1503.4
GRID     12251          3486.78 -997.8  -1511.6
GRID     12252          3486.78 -997.8  -1523.73
GRID     12257          3486.74 -1057.  -1246.6
GRID     12258          3486.74 -1057.  -1262.93
GRID     12259          3486.74 -1057.  -1277.77
GRID     12260          3486.74 -1057.  -1292.6
GRID     12261          3486.74 -1057.  -1306.6
GRID     12262          3486.74 -1057.  -1321.6
GRID     12263          3486.74 -1057.  -1336.6
GRID     12264          3486.74 -1057.  -1351.6
GRID     12265          3486.74 -1057.  -1368.9
GRID     12266          3486.74 -1057.  -1386.2
GRID     12267          3486.74 -1057.  -1403.5
GRID     12268          3486.74 -1057.  -1420.8
GRID     12269          3486.74 -1057.  -1438.1
GRID     12270          3486.74 -1057.  -1455.4
GRID     12273          3486.74 -1057.  -1525.12
GRID     12274          3486.74 -1057.  -1511.6
GRID     12275          3486.74 -1057.  -1503.4
GRID     12276          3486.74 -1057.  -1487.4
GRID     12277          3486.74 -1057.  -1471.4
GRID     12279          3486.74 -1002.4 -1246.6
GRID     12280          3486.74 -1002.4 -1511.6
GRID     12281          3486.74 -1002.4 -1525.12
GRID     12284          3486.74 -1002.4 -1262.93
GRID     12285          3486.74 -1002.4 -1277.77
GRID     12286          3486.74 -1002.4 -1292.6
GRID     12287          3486.74 -1002.4 -1306.6
GRID     12288          3486.74 -1002.4 -1321.6
GRID     12289          3486.74 -1002.4 -1336.6
GRID     12290          3486.74 -1002.4 -1351.6
GRID     12291          3486.74 -1002.4 -1368.9
GRID     12292          3486.74 -1002.4 -1386.2
GRID     12293          3486.74 -1002.4 -1403.5
GRID     12294          3486.74 -1002.4 -1420.8
GRID     12295          3486.74 -1002.4 -1438.1
GRID     12296          3486.74 -1002.4 -1455.4
GRID     12297          3486.74 -1002.4 -1471.4
GRID     12298          3486.74 -1002.4 -1487.4
GRID     12299          3486.74 -1002.4 -1503.4
GRID     12300          3498.88 -997.8  -1241.66
GRID     14000          3497.44 -997.795-1241.06
GRID     14001          3497.44 -997.8  -1252.56
GRID     14002          3497.44 -997.8  -1267.39
GRID     14003          3497.44 -997.8  -1282.22
GRID     14004          3497.44 -997.8  -1297.06
GRID     14005          3497.44 -997.8  -1311.85
GRID     14006          3486.47 -997.8  -1231.45
GRID     14007          3485.94 -997.8  -1241.06
GRID     14008          3485.94 -997.8  -1252.56
GRID     14009          3485.94 -997.8  -1267.39
GRID     14010          3485.94 -997.8  -1282.22
GRID     14011          3485.94 -997.8  -1297.05
GRID     14014          3507.05 -997.8  -1252.03
GRID     14015          3507.5  -997.8  -1267.39
GRID     14016          3507.5  -997.8  -1282.22
GRID     14017          3507.5  -997.8  -1302.73
GRID     14018          3471.1  -997.8  -1231.
GRID     14019          3471.1  -997.8  -1241.06
GRID     14020          3471.1  -997.8  -1252.56
GRID     14021          3471.1  -997.8  -1282.22
GRID     14022          3471.59 -997.8  -1296.87
GRID     14023          3456.27 -997.8  -1231.
GRID     14024          3456.27 -997.8  -1241.06
GRID     14025          3456.26 -997.8  -1267.39
GRID     14026          3435.65 -997.8  -1231.
GRID     14027          3441.44 -997.8  -1241.06
GRID     14028          3441.42 -997.8  -1252.56
GRID     14029          3441.63 -997.8  -1266.91
GRID     14030          3456.61 -997.8  -1281.89
GRID     14031          3486.57 -997.8  -1311.85
GRID     14032          3426.65 -997.8  -1251.93
GRID     14033          3426.65 -997.8  -1241.06
GRID     14034          3456.26 -997.8  -1252.56
GRID     14035          3471.1  -997.8  -1267.39
GRID     14036          3503.1  -997.8  -1310.72
GRID     14037          3427.78 -997.8  -1235.4
GRID     14038          3482.33 -1000.8 -1311.85
GRID     14039          3468.41 -1000.8 -1297.93
GRID     14041          3454.49 -1000.8 -1284.01
GRID     14043          3440.57 -1000.8 -1270.09
GRID     14045          3426.65 -1000.8 -1256.17
GRID     14047          3482.33 -1004.8 -1311.85
GRID     14048          3468.41 -1004.8 -1297.93
GRID     14049          3454.49 -1004.8 -1284.01
GRID     14050          3440.57 -1004.8 -1270.09
GRID     14051          3426.65 -1004.8 -1256.17
GRID     14500          2869.06 -997.8  -1241.06
GRID     14501          2869.06 -997.8  -1252.56
GRID     14502          2869.06 -997.8  -1267.39
GRID     14503          2869.06 -997.8  -1282.22
GRID     14504          2869.06 -997.8  -1297.06
GRID     14505          2869.06 -997.8  -1311.85
GRID     14506          2882.85 -997.8  -1231.
GRID     14507          2880.56 -997.8  -1241.06
GRID     14508          2880.56 -997.8  -1252.56
GRID     14509          2880.56 -997.8  -1267.39
GRID     14510          2880.56 -997.8  -1282.22
GRID     14511          2880.56 -997.8  -1297.05
GRID     14512          2859.   -997.8  -1254.85
GRID     14513          2859.   -997.8  -1267.39
GRID     14514          2859.   -997.8  -1282.22
GRID     14515          2859.   -997.8  -1297.06
GRID     14516          2895.4  -997.8  -1231.
GRID     14517          2895.4  -997.8  -1241.06
GRID     14518          2895.4  -997.8  -1252.56
GRID     14519          2895.4  -997.8  -1282.22
GRID     14520          2895.4  -997.8  -1297.05
GRID     14521          2910.23 -997.8  -1231.
GRID     14522          2910.23 -997.8  -1241.06
GRID     14523          2910.24 -997.8  -1267.39
GRID     14524          2925.06 -997.8  -1231.
GRID     14525          2925.08 -997.8  -1252.56
GRID     14526          2925.08 -997.8  -1267.39
GRID     14527          2910.24 -997.8  -1282.22
GRID     14528          2880.56 -997.8  -1311.85
GRID     14529          2939.85 -997.8  -1252.56
GRID     14530          2939.85 -997.8  -1241.06
GRID     14531          2910.24 -997.8  -1252.56
GRID     14532          2895.4  -997.8  -1267.39
GRID     14533          2859.   -997.8  -1307.57
GRID     14534          2935.68 -997.8  -1231.
GRID     14535          2925.06 -997.8  -1241.06
GRID     14536          2874.81 -997.8  -1235.31
GRID     14537          2863.29 -997.8  -1246.83
GRID     14538          2884.17 -1000.8 -1311.85
GRID     14539          2898.09 -1000.8 -1297.93
GRID     14540          2912.01 -1000.8 -1284.01
GRID     14541          2925.93 -1000.8 -1270.09
GRID     14542          2939.85 -1000.8 -1256.17
GRID     14548          2884.17 -1004.8 -1311.85
GRID     14549          2898.09 -1004.8 -1297.93
GRID     14550          2912.01 -1004.8 -1284.01
GRID     14551          2925.93 -1004.8 -1270.09
GRID     14552          2939.85 -1004.8 -1256.17
GRID     16000          2939.74 -1047.95-1226.6
GRID     16001          2919.74 -1047.95-1226.6
GRID     16002          2899.74 -1047.95-1226.6
GRID     16003          2879.74 -1047.95-1226.6
GRID     16004          2869.74 -1058.8 -1226.6
GRID     16005          2869.74 -1048.38-1226.6
GRID     16006          2854.59 -1060.09-1226.39
GRID     16007          2855.89 -1054.45-1226.6
GRID     16008          2869.74 -1062.05-1230.1
GRID     16009          2858.3  -1062.05-1230.1
GRID     16010          2854.6  -1058.8 -1234.1
GRID     16011          2854.6  -1049.38-1234.1
GRID     16012          2854.6  -1054.45-1228.1
GRID     16013          2858.3  -1062.05-1234.1
GRID     16014          2854.6  -1058.8 -1315.28
GRID     16015          2854.6  -1053.59-1315.28
GRID     16016          2854.6  -1048.38-1315.28
GRID     16017          2854.6  -1043.16-1315.28
GRID     16018          2854.6  -1037.95-1315.28
GRID     16019          2854.6  -1058.8 -1310.21
GRID     16020          2854.6  -1053.59-1310.21
GRID     16021          2854.6  -1048.38-1310.21
GRID     16022          2854.6  -1043.16-1310.21
GRID     16023          2854.6  -1037.95-1310.21
GRID     16024          2854.6  -1058.8 -1305.14
GRID     16025          2854.6  -1053.59-1305.14
GRID     16026          2854.6  -1043.16-1305.14
GRID     16027          2854.6  -1037.95-1305.14
GRID     16028          2854.6  -1058.8 -1300.06
GRID     16029          2854.6  -1053.59-1300.06
GRID     16030          2854.6  -1048.38-1300.06
GRID     16031          2854.6  -1043.16-1300.06
GRID     16032          2854.6  -1037.95-1300.06
GRID     16033          2854.6  -1058.8 -1294.99
GRID     16034          2854.6  -1053.59-1294.99
GRID     16035          2854.6  -1048.38-1294.99
GRID     16036          2854.6  -1043.16-1294.99
GRID     16037          2854.6  -1037.95-1294.99
GRID     16038          2854.6  -1058.8 -1289.91
GRID     16039          2854.6  -1053.59-1289.91
GRID     16040          2854.6  -1048.38-1289.91
GRID     16041          2854.6  -1043.16-1289.91
GRID     16042          2854.6  -1037.95-1289.91
GRID     16043          2854.6  -1058.8 -1284.84
GRID     16044          2854.6  -1053.59-1284.84
GRID     16045          2854.6  -1043.16-1284.84
GRID     16046          2854.6  -1037.95-1284.84
GRID     16047          2854.6  -1058.8 -1279.77
GRID     16048          2854.6  -1053.59-1279.77
GRID     16049          2854.6  -1048.38-1279.77
GRID     16050          2854.6  -1043.16-1279.77
GRID     16051          2854.6  -1037.95-1279.77
GRID     16052          2854.6  -1058.8 -1274.69
GRID     16053          2854.6  -1053.59-1274.69
GRID     16054          2854.6  -1048.38-1274.69
GRID     16055          2854.6  -1043.16-1274.69
GRID     16056          2854.6  -1037.95-1274.69
GRID     16057          2854.6  -1058.8 -1269.62
GRID     16058          2854.6  -1053.59-1269.62
GRID     16059          2854.6  -1048.38-1269.62
GRID     16060          2854.6  -1043.16-1269.62
GRID     16061          2854.6  -1037.95-1269.62
GRID     16062          2854.6  -1058.8 -1264.54
GRID     16063          2854.6  -1053.59-1264.54
GRID     16064          2854.6  -1043.16-1264.54
GRID     16065          2854.6  -1037.95-1264.54
GRID     16066          2854.6  -1058.8 -1259.47
GRID     16067          2854.6  -1053.59-1259.47
GRID     16068          2854.6  -1048.38-1259.47
GRID     16069          2854.6  -1043.16-1259.47
GRID     16070          2854.6  -1037.95-1259.47
GRID     16071          2854.6  -1058.8 -1254.4
GRID     16072          2854.6  -1053.59-1254.4
GRID     16073          2854.6  -1048.38-1254.4
GRID     16074          2854.6  -1043.16-1254.4
GRID     16075          2854.6  -1037.95-1254.4
GRID     16076          2854.6  -1058.8 -1249.32
GRID     16077          2854.6  -1053.59-1249.32
GRID     16078          2854.6  -1048.38-1249.32
GRID     16079          2854.6  -1043.16-1249.32
GRID     16080          2854.6  -1037.95-1249.32
GRID     16081          2854.6  -1058.8 -1244.25
GRID     16082          2854.6  -1053.59-1244.25
GRID     16083          2854.6  -1047.95-1244.1
GRID     16084          2854.6  -1043.16-1244.25
GRID     16085          2854.6  -1037.95-1244.25
GRID     16086          2854.6  -1058.8 -1239.17
GRID     16087          2854.6  -1053.59-1239.17
GRID     16088          2854.6  -1048.38-1239.17
GRID     16089          2854.6  -1043.16-1239.17
GRID     16090          2854.6  -1037.95-1239.17
GRID     16091          2854.6  -1053.59-1234.1
GRID     16092          2854.6  -1043.16-1234.1
GRID     16093          2854.6  -1037.95-1234.1
GRID     16094          2869.74 -1053.59-1226.6
GRID     16095          2869.74 -1043.16-1226.6
GRID     16096          2869.74 -1037.95-1226.6
GRID     16097          2874.74 -1058.8 -1226.6
GRID     16098          2874.74 -1053.59-1226.6
GRID     16099          2874.74 -1048.38-1226.6
GRID     16100          2874.74 -1043.16-1226.6
GRID     16101          2874.74 -1037.95-1226.6
GRID     16102          2879.74 -1058.8 -1226.6
GRID     16103          2879.74 -1053.59-1226.6
GRID     16104          2879.74 -1047.95-1226.6
GRID     16105          2879.74 -1043.16-1226.6
GRID     16106          2879.74 -1037.95-1226.6
GRID     16107          2884.74 -1058.8 -1226.6
GRID     16108          2884.74 -1053.59-1226.6
GRID     16109          2884.74 -1048.38-1226.6
GRID     16110          2884.74 -1043.16-1226.6
GRID     16111          2884.74 -1037.95-1226.6
GRID     16112          2889.74 -1058.8 -1226.6
GRID     16113          2889.74 -1053.59-1226.6
GRID     16114          2889.74 -1048.38-1226.6
GRID     16115          2889.74 -1043.16-1226.6
GRID     16116          2889.74 -1037.95-1226.6
GRID     16117          2894.74 -1058.8 -1226.6
GRID     16118          2894.74 -1053.59-1226.6
GRID     16119          2894.74 -1048.38-1226.6
GRID     16120          2894.74 -1043.16-1226.6
GRID     16121          2894.74 -1037.95-1226.6
GRID     16122          2899.74 -1058.8 -1226.6
GRID     16123          2899.74 -1053.59-1226.6
GRID     16124          2899.74 -1047.95-1226.6
GRID     16125          2899.74 -1043.16-1226.6
GRID     16126          2899.74 -1037.95-1226.6
GRID     16127          2904.74 -1058.8 -1226.6
GRID     16128          2904.74 -1053.59-1226.6
GRID     16129          2904.74 -1048.38-1226.6
GRID     16130          2904.74 -1043.16-1226.6
GRID     16131          2904.74 -1037.95-1226.6
GRID     16132          2909.74 -1058.8 -1226.6
GRID     16133          2909.74 -1053.59-1226.6
GRID     16134          2909.74 -1048.38-1226.6
GRID     16135          2909.74 -1043.16-1226.6
GRID     16136          2909.74 -1037.95-1226.6
GRID     16137          2914.74 -1058.8 -1226.6
GRID     16138          2914.74 -1053.59-1226.6
GRID     16139          2914.74 -1048.38-1226.6
GRID     16140          2914.74 -1043.16-1226.6
GRID     16141          2914.74 -1037.95-1226.6
GRID     16142          2919.74 -1058.8 -1226.6
GRID     16143          2919.74 -1053.59-1226.6
GRID     16144          2919.74 -1047.95-1226.6
GRID     16145          2919.74 -1043.16-1226.6
GRID     16146          2919.74 -1037.95-1226.6
GRID     16147          2924.74 -1058.8 -1226.6
GRID     16148          2924.74 -1053.59-1226.6
GRID     16149          2924.74 -1048.38-1226.6
GRID     16150          2924.74 -1043.16-1226.6
GRID     16151          2924.74 -1037.95-1226.6
GRID     16152          2929.74 -1058.8 -1226.6
GRID     16153          2929.74 -1053.59-1226.6
GRID     16154          2929.74 -1048.38-1226.6
GRID     16155          2929.74 -1043.16-1226.6
GRID     16156          2929.74 -1037.95-1226.6
GRID     16157          2934.74 -1058.8 -1226.6
GRID     16158          2934.74 -1053.59-1226.6
GRID     16159          2934.74 -1048.38-1226.6
GRID     16160          2934.74 -1043.16-1226.6
GRID     16161          2934.74 -1037.95-1226.6
GRID     16162          2939.74 -1058.8 -1226.6
GRID     16163          2939.74 -1053.59-1226.6
GRID     16164          2939.74 -1047.95-1226.6
GRID     16165          2939.74 -1043.16-1226.6
GRID     16166          2939.74 -1037.95-1226.6
GRID     16167          2944.74 -1058.8 -1226.6
GRID     16168          2944.74 -1053.59-1226.6
GRID     16169          2944.74 -1048.38-1226.6
GRID     16170          2944.74 -1043.16-1226.6
GRID     16171          2944.74 -1037.95-1226.6
GRID     16172          2949.74 -1058.8 -1226.6
GRID     16173          2949.74 -1053.59-1226.6
GRID     16174          2949.74 -1048.38-1226.6
GRID     16175          2949.74 -1043.16-1226.6
GRID     16176          2949.74 -1037.95-1226.6
GRID     16177          2855.8  -1061.3 -1234.1
GRID     16178          2855.8  -1061.3 -1239.27
GRID     16179          2858.3  -1062.05-1239.36
GRID     16180          2855.8  -1061.3 -1244.43
GRID     16181          2858.3  -1062.05-1244.62
GRID     16182          2855.8  -1061.3 -1249.6
GRID     16183          2858.3  -1062.05-1249.88
GRID     16184          2855.8  -1061.3 -1254.77
GRID     16185          2858.3  -1062.05-1255.14
GRID     16186          2855.8  -1061.3 -1259.93
GRID     16187          2858.3  -1062.05-1260.39
GRID     16188          2855.8  -1061.3 -1265.1
GRID     16189          2858.3  -1062.05-1265.65
GRID     16190          2855.8  -1061.3 -1270.26
GRID     16191          2858.3  -1062.05-1270.91
GRID     16192          2855.8  -1061.3 -1275.43
GRID     16193          2858.3  -1062.05-1276.17
GRID     16194          2855.8  -1061.3 -1280.6
GRID     16195          2858.3  -1062.05-1281.43
GRID     16196          2855.8  -1061.3 -1285.76
GRID     16197          2858.3  -1062.05-1286.69
GRID     16198          2855.8  -1061.3 -1290.93
GRID     16199          2858.3  -1062.05-1291.95
GRID     16200          2855.8  -1061.3 -1296.1
GRID     16201          2858.3  -1062.05-1297.21
GRID     16202          2855.8  -1061.3 -1301.26
GRID     16203          2858.3  -1062.05-1302.46
GRID     16204          2855.8  -1061.3 -1306.43
GRID     16205          2858.3  -1062.05-1307.72
GRID     16206          2855.8  -1061.3 -1311.6
GRID     16207          2858.3  -1062.05-1312.98
GRID     16208          2855.8  -1061.3 -1316.76
GRID     16209          2858.3  -1062.05-1318.24
GRID     16210          2874.74 -1062.05-1230.1
GRID     16211          2879.74 -1062.05-1230.1
GRID     16212          2884.74 -1062.05-1230.1
GRID     16213          2889.74 -1062.05-1230.1
GRID     16214          2894.74 -1062.05-1230.1
GRID     16215          2899.74 -1062.05-1230.1
GRID     16216          2904.74 -1062.05-1230.1
GRID     16217          2909.74 -1062.05-1230.1
GRID     16218          2914.74 -1062.05-1230.1
GRID     16219          2919.74 -1062.05-1230.1
GRID     16220          2924.74 -1062.05-1230.1
GRID     16221          2929.74 -1062.05-1230.1
GRID     16222          2934.74 -1062.05-1230.1
GRID     16223          2939.74 -1062.05-1230.1
GRID     16224          2944.74 -1062.05-1230.1
GRID     16225          2949.74 -1062.05-1230.1
GRID     16226          2927.07 -1057.45-1283.3  34
GRID     16227          2861.46 -1062.05-1319.37
GRID     16228          2927.7  -1062.05-1282.45
GRID     16229          2924.21 -1062.05-1284.87
GRID     16230          2919.73 -1062.05-1287.33
GRID     16231          2915.25 -1062.05-1289.79
GRID     16232          2910.77 -1062.05-1292.26
GRID     16233          2906.28 -1062.05-1294.72
GRID     16234          2901.8  -1062.05-1297.19
GRID     16235          2897.32 -1062.05-1299.65
GRID     16236          2892.84 -1062.05-1302.12
GRID     16237          2888.35 -1062.05-1304.58
GRID     16238          2883.87 -1062.05-1307.05
GRID     16239          2879.39 -1062.05-1309.51
GRID     16240          2874.91 -1062.05-1311.98
GRID     16241          2870.43 -1062.05-1314.44
GRID     16242          2865.94 -1062.05-1316.91
GRID     16243          2861.46 -1037.95-1319.37 34
GRID     16244          2861.46 -1058.63-1319.37 34
GRID     16245          2861.46 -1053.46-1319.37 34
GRID     16246          2861.46 -1048.29-1319.37 34
GRID     16247          2861.46 -1043.12-1319.37 34
GRID     16248          2873.47 -1037.95-1312.77 34
GRID     16249          2865.46 -1037.95-1317.17 34
GRID     16250          2869.47 -1037.95-1314.97 34
GRID     16251          2875.68 -1038.36-1311.55 34
GRID     16252          2924.86 -1057.04-1284.51 34
GRID     16253          2879.78 -1039.92-1309.3  34
GRID     16254          2883.88 -1041.47-1307.04 34
GRID     16255          2887.98 -1043.03-1304.79 34
GRID     16256          2892.07 -1044.59-1302.54 34
GRID     16257          2896.17 -1046.14-1300.28 34
GRID     16258          2900.27 -1047.7 -1298.03 34
GRID     16259          2904.37 -1049.26-1295.78 34
GRID     16260          2908.46 -1050.81-1293.53 34
GRID     16261          2912.56 -1052.37-1291.27 34
GRID     16262          2916.66 -1053.93-1289.02 34
GRID     16263          2920.76 -1055.48-1286.77 34
GRID     16264          2910.97 -1059.31-1292.15 34
GRID     16265          2906.34 -1059.02-1294.69 34
GRID     16266          2901.88 -1058.89-1297.15 34
GRID     16267          2897.41 -1058.39-1299.6  34
GRID     16268          2892.94 -1058.2 -1302.06 34
GRID     16269          2888.45 -1058.73-1304.53 34
GRID     16270          2883.97 -1057.79-1306.99 34
GRID     16271          2879.49 -1058.73-1309.46 34
GRID     16272          2875.01 -1058.73-1311.92 34
GRID     16273          2870.53 -1058.73-1314.39 34
GRID     16274          2866.04 -1058.71-1316.85 34
GRID     16275          2915.47 -1059.56-1289.67 34
GRID     16276          2914.8  -1056.08-1290.04 34
GRID     16277          2912.42 -1054.65-1291.35 34
GRID     16278          2909.67 -1053.78-1292.86 34
GRID     16279          2908.69 -1055.63-1293.4  34
GRID     16280          2905.56 -1054.49-1295.12 34
GRID     16281          2901.83 -1053.78-1297.17 34
GRID     16282          2879.52 -1053.27-1309.44 34
GRID     16283          2875.11 -1053.66-1311.87 34
GRID     16284          2870.63 -1053.66-1314.33 34
GRID     16285          2866.17 -1053.63-1316.78 34
GRID     16286          2865.33 -1042.95-1317.24 34
GRID     16287          2868.98 -1043.02-1315.23 34
GRID     16288          2872.69 -1043.01-1313.19 34
GRID     16289          2876.27 -1043.44-1311.23 34
GRID     16290          2879.59 -1043.86-1309.4  34
GRID     16291          2883.29 -1046.19-1307.37 34
GRID     16292          2887.43 -1047.79-1305.09 34
GRID     16293          2891.12 -1047.99-1303.06 34
GRID     16294          2894.08 -1052.25-1301.44 34
GRID     16295          2897.89 -1053.02-1299.34 34
GRID     16296          2865.56 -1048.33-1317.12 34
GRID     16297          2869.74 -1048.17-1314.82 34
GRID     16298          2876.64 -1048.28-1311.02 34
GRID     16299          2879.48 -1047.56-1309.46 34
GRID     16300          2883.63 -1051.85-1307.18 34
GRID     16301          2888.62 -1053.35-1304.44 34
GRID     16302          2873.3  -1048.47-1312.86 34
GRID     16303          2857.68 -1037.95-1317.87
GRID     16304          2859.1  -1059.57-1318.71
GRID     16305          2856.86 -1056.23-1317.39
GRID     16306          2857.73 -1043.98-1317.9
GRID     16307          2857.45 -1050.02-1317.74
GRID     16308          2942.14 -1062.05-1275.01
GRID     16309          2933.18 -1062.05-1279.94
GRID     16310          2937.66 -1062.05-1277.47
GRID     16311          2949.74 -1062.05-1264.27
GRID     16312          2945.86 -1062.05-1272.
GRID     16313          2948.9  -1062.05-1268.98
GRID     16314          2949.74 -1062.05-1260.
GRID     16315          2949.74 -1062.05-1255.73
GRID     16316          2949.74 -1062.05-1251.46
GRID     16317          2949.74 -1062.05-1247.19
GRID     16318          2949.74 -1062.05-1242.91
GRID     16319          2949.74 -1062.05-1238.64
GRID     16320          2949.74 -1062.05-1234.37
GRID     16321          2866.48 -1062.05-1234.97
GRID     16322          2864.69 -1062.05-1239.63
GRID     16323          2863.64 -1062.05-1244.45
GRID     16324          2863.48 -1062.05-1249.66
GRID     16325          2863.45 -1062.05-1254.9
GRID     16326          2863.45 -1062.05-1260.15
GRID     16327          2863.46 -1062.05-1265.4
GRID     16328          2863.46 -1062.05-1270.66
GRID     16329          2863.47 -1062.05-1275.91
GRID     16330          2863.47 -1062.05-1281.17
GRID     16331          2863.47 -1062.05-1286.43
GRID     16332          2863.47 -1062.05-1291.69
GRID     16333          2863.47 -1062.05-1296.95
GRID     16334          2862.99 -1062.05-1302.68
GRID     16335          2863.53 -1062.05-1308.68
GRID     16336          2862.14 -1062.05-1313.91
GRID     16337          2865.62 -1062.05-1314.29
GRID     16338          2869.04 -1062.05-1309.8
GRID     16339          2873.63 -1062.05-1308.27
GRID     16340          2878.01 -1062.05-1306.7
GRID     16341          2881.7  -1062.05-1303.13
GRID     16342          2886.47 -1062.05-1301.32
GRID     16343          2890.92 -1062.05-1298.84
GRID     16344          2895.39 -1062.05-1296.36
GRID     16345          2899.87 -1062.05-1293.9
GRID     16346          2904.35 -1062.05-1291.43
GRID     16347          2908.83 -1062.05-1288.97
GRID     16348          2913.31 -1062.05-1286.5
GRID     16349          2917.79 -1062.05-1284.04
GRID     16350          2922.27 -1062.05-1281.57
GRID     16351          2925.76 -1062.05-1279.16
GRID     16352          2931.24 -1062.05-1276.64
GRID     16353          2935.45 -1062.05-1274.45
GRID     16354          2939.72 -1062.05-1272.35
GRID     16355          2943.19 -1062.05-1269.81
GRID     16356          2945.16 -1062.05-1266.92
GRID     16357          2944.98 -1062.05-1258.7
GRID     16358          2945.08 -1062.05-1254.87
GRID     16359          2945.22 -1062.05-1250.49
GRID     16360          2945.2  -1062.05-1247.33
GRID     16361          2945.18 -1062.05-1242.12
GRID     16362          2945.03 -1062.05-1238.09
GRID     16363          2944.97 -1062.05-1234.04
GRID     16364          2940.19 -1062.05-1233.99
GRID     16365          2935.42 -1062.05-1233.89
GRID     16366          2929.98 -1062.05-1233.88
GRID     16367          2924.77 -1062.05-1234.62
GRID     16368          2919.76 -1062.05-1234.85
GRID     16369          2914.75 -1062.05-1234.79
GRID     16370          2909.76 -1062.05-1234.76
GRID     16371          2904.74 -1062.05-1234.73
GRID     16372          2899.74 -1062.05-1235.1
GRID     16373          2894.78 -1062.05-1235.98
GRID     16374          2889.74 -1062.05-1235.55
GRID     16375          2884.5  -1062.05-1235.38
GRID     16376          2879.23 -1062.05-1235.35
GRID     16377          2873.3  -1062.05-1235.28
GRID     16378          2871.32 -1062.05-1239.88
GRID     16379          2869.46 -1062.05-1247.93
GRID     16380          2868.64 -1062.05-1250.81
GRID     16381          2868.47 -1062.05-1254.85
GRID     16382          2868.49 -1062.05-1259.98
GRID     16383          2868.54 -1062.05-1265.16
GRID     16384          2868.59 -1062.05-1270.37
GRID     16385          2868.61 -1062.05-1275.6
GRID     16386          2868.63 -1062.05-1280.85
GRID     16387          2868.63 -1062.05-1286.1
GRID     16388          2868.64 -1062.05-1291.35
GRID     16389          2868.64 -1062.05-1296.61
GRID     16390          2867.92 -1062.05-1303.18
GRID     16391          2872.36 -1062.05-1302.78
GRID     16392          2876.33 -1062.05-1302.55
GRID     16393          2879.26 -1062.05-1297.65
GRID     16394          2884.02 -1062.05-1296.96
GRID     16395          2888.42 -1062.05-1294.48
GRID     16396          2892.99 -1062.05-1292.22
GRID     16397          2897.31 -1062.05-1289.53
GRID     16398          2901.78 -1062.05-1287.06
GRID     16399          2906.26 -1062.05-1284.59
GRID     16400          2910.73 -1062.05-1282.13
GRID     16401          2915.21 -1062.05-1279.66
GRID     16402          2919.69 -1062.05-1277.2
GRID     16403          2923.18 -1062.05-1274.78
GRID     16404          2928.66 -1062.05-1272.27
GRID     16405          2932.79 -1062.05-1270.17
GRID     16406          2936.39 -1062.05-1268.63
GRID     16407          2939.28 -1062.05-1266.92 36
GRID     16408          2945.45 -1062.05-1262.85
GRID     16409          2940.49 -1062.05-1253.82
GRID     16410          2940.77 -1062.05-1250.08
GRID     16411          2940.61 -1062.05-1247.24
GRID     16412          2940.57 -1062.05-1241.92
GRID     16413          2940.27 -1062.05-1237.94
GRID     16414          2940.25 -1062.05-1257.58
GRID     16415          2935.4  -1062.05-1258.33
GRID     16416          2935.78 -1062.05-1253.14
GRID     16417          2936.26 -1062.05-1249.17
GRID     16418          2936.08 -1062.05-1247.21
GRID     16419          2936.09 -1062.05-1241.23
GRID     16420          2936.49 -1062.05-1237.65
GRID     16421          2877.3  -1062.05-1240.67
GRID     16422          2875.17 -1062.05-1248.14
GRID     16423          2874.02 -1062.05-1250.74
GRID     16424          2873.28 -1062.05-1255.33
GRID     16425          2873.32 -1062.05-1260.16
GRID     16426          2873.17 -1062.05-1265.2
GRID     16427          2873.59 -1062.05-1270.22
GRID     16428          2874.07 -1062.05-1275.4
GRID     16429          2873.73 -1062.05-1280.57
GRID     16430          2873.48 -1062.05-1285.97
GRID     16431          2873.41 -1062.05-1291.43
GRID     16432          2874.11 -1062.05-1297.19
GRID     16433          2883.3  -1062.05-1240.63
GRID     16434          2880.96 -1062.05-1248.13
GRID     16435          2879.49 -1062.05-1251.23
GRID     16436          2878.46 -1062.05-1256.05
GRID     16437          2878.02 -1062.05-1260.68
GRID     16438          2877.81 -1062.05-1265.5
GRID     16439          2878.45 -1062.05-1270.28
GRID     16440          2879.52 -1062.05-1275.53
GRID     16441          2878.41 -1062.05-1280.51
GRID     16442          2878.39 -1062.05-1285.78
GRID     16443          2878.29 -1062.05-1291.3
GRID     16444          2888.9  -1062.05-1240.99
GRID     16445          2886.81 -1062.05-1248.42
GRID     16446          2885.41 -1062.05-1251.9
GRID     16447          2883.64 -1062.05-1256.9
GRID     16448          2882.49 -1062.05-1261.61
GRID     16449          2882.13 -1062.05-1266.15
GRID     16450          2883.51 -1062.05-1270.87
GRID     16451          2885.32 -1062.05-1275.75
GRID     16452          2882.59 -1062.05-1280.64
GRID     16453          2883.07 -1062.05-1285.68
GRID     16454          2883.22 -1062.05-1291.01
GRID     16455          2887.61 -1062.05-1289.77
GRID     16456          2891.41 -1062.05-1287.63
GRID     16457          2895.42 -1062.05-1285.2
GRID     16458          2901.6  -1062.05-1282.73
GRID     16459          2904.91 -1062.05-1280.25
GRID     16460          2908.29 -1062.05-1277.77
GRID     16461          2912.71 -1062.05-1275.3
GRID     16462          2917.16 -1062.05-1272.83
GRID     16463          2920.62 -1062.05-1270.41
GRID     16464          2926.09 -1062.05-1267.9
GRID     16465          2930.28 -1062.05-1265.83
GRID     16466          2936.24 -1060.63-1264.27
GRID     16467          2938.75 -1062.05-1262.96
GRID     16468          2941.13 -1062.05-1261.32
GRID     16469          2887.   -1062.05-1285.51
GRID     16470          2890.69 -1062.05-1283.
GRID     16471          2894.09 -1062.05-1280.66
GRID     16472          2897.87 -1062.05-1278.3
GRID     16473          2901.9  -1062.05-1275.89
GRID     16474          2906.08 -1062.05-1273.43
GRID     16475          2910.23 -1062.05-1270.64
GRID     16476          2914.6  -1062.05-1268.21
GRID     16477          2919.13 -1062.05-1266.01
GRID     16478          2923.23 -1062.05-1263.91
GRID     16479          2927.41 -1062.05-1261.73
GRID     16480          2931.07 -1062.05-1259.72
GRID     16481          2931.   -1062.05-1254.42
GRID     16482          2931.2  -1062.05-1248.42
GRID     16483          2931.62 -1062.05-1244.8
GRID     16484          2932.12 -1062.05-1240.69
GRID     16485          2932.81 -1062.05-1237.46
GRID     16486          2886.24 -1062.05-1281.68
GRID     16487          2889.46 -1062.05-1278.65
GRID     16488          2893.12 -1062.05-1276.27
GRID     16489          2896.51 -1062.05-1273.49
GRID     16490          2901.08 -1062.05-1271.04
GRID     16491          2903.92 -1062.05-1268.58
GRID     16492          2907.92 -1062.05-1265.91
GRID     16493          2912.18 -1062.05-1263.54
GRID     16494          2916.76 -1062.05-1261.66
GRID     16495          2920.51 -1062.05-1258.91
GRID     16496          2926.1  -1062.05-1256.8
GRID     16497          2890.89 -1062.05-1272.79
GRID     16498          2894.53 -1062.05-1269.19
GRID     16499          2897.99 -1062.05-1266.39
GRID     16500          2901.01 -1062.05-1263.4
GRID     16501          2905.35 -1062.05-1261.07
GRID     16502          2909.39 -1062.05-1258.84
GRID     16503          2914.43 -1062.05-1257.73
GRID     16504          2918.81 -1062.05-1255.24
GRID     16505          2923.02 -1062.05-1253.09
GRID     16506          2925.95 -1062.05-1250.89
GRID     16507          2927.33 -1062.05-1246.65
GRID     16508          2927.5  -1062.05-1242.53
GRID     16509          2928.31 -1062.05-1238.18
GRID     16510          2890.81 -1062.05-1266.25
GRID     16511          2923.58 -1062.05-1238.96
GRID     16512          2918.79 -1062.05-1240.1
GRID     16513          2914.08 -1062.05-1239.5
GRID     16514          2909.37 -1062.05-1239.43
GRID     16515          2904.53 -1062.05-1239.39
GRID     16516          2899.64 -1062.05-1240.03
GRID     16517          2894.69 -1062.05-1241.82
GRID     16518          2887.92 -1062.05-1269.48
GRID     16519          2885.71 -1062.05-1266.02
GRID     16520          2887.42 -1062.05-1262.23
GRID     16521          2889.03 -1062.05-1257.98
GRID     16522          2893.49 -1062.05-1262.67
GRID     16523          2890.81 -1062.05-1253.37
GRID     16524          2895.52 -1062.05-1258.51
GRID     16525          2892.13 -1062.05-1248.49
GRID     16526          2896.81 -1062.05-1252.12
GRID     16527          2901.86 -1062.05-1257.2
GRID     16528          2902.27 -1062.05-1252.11
GRID     16529          2906.01 -1062.05-1251.2
GRID     16530          2905.28 -1062.05-1255.7
GRID     16531          2901.07 -1062.05-1243.65
GRID     16532          2898.45 -1062.05-1248.22
GRID     16533          2902.62 -1062.05-1248.64
GRID     16534          2906.67 -1062.05-1247.35
GRID     16535          2910.23 -1062.05-1248.38
GRID     16536          2910.03 -1062.05-1253.59
GRID     16537          2914.36 -1062.05-1253.21
GRID     16538          2918.4  -1062.05-1250.57
GRID     16539          2922.85 -1062.05-1248.23
GRID     16540          2922.86 -1062.05-1243.56
GRID     16541          2913.43 -1062.05-1243.9
GRID     16542          2908.96 -1062.05-1243.46
GRID     16543          2904.8  -1062.05-1243.5
GRID     16544          2914.2  -1062.05-1249.06
GRID     16545          2918.14 -1062.05-1245.42
GRID     16546          2941.72 -1062.05-1265.04
GRID     16547          2854.7  -1057.27-1227.25
GRID     16548          2855.24 -1057.27-1226.5
GRID     16549          2854.6  -1047.95-1264.27
GRID     16550          2854.6  -1047.95-1284.1
GRID     16551          2854.6  -1047.95-1304.1
GRID     18000          2854.6  -1076.  -1263.
GRID     18001          2854.6  -1096.  -1261.8
GRID     18002          2854.6  -1146.  -1261.8
GRID     18003          2854.6  -1146.  -1277.76
GRID     18004          2854.6  -1146.  -1269.78
GRID     18005          2854.6  -1063.87-1336.6
GRID     18006          2854.6  -1138.53-1283.11
GRID     18007          2854.6  -1131.07-1288.46
GRID     18008          2854.6  -1123.6 -1293.81
GRID     18009          2854.6  -1116.14-1299.16
GRID     18010          2854.6  -1108.67-1304.51
GRID     18011          2854.6  -1101.2 -1309.86
GRID     18012          2854.6  -1093.74-1315.2
GRID     18013          2854.6  -1086.27-1320.55
GRID     18014          2854.6  -1078.81-1325.9
GRID     18015          2854.6  -1071.34-1331.25
GRID     18016          2854.6  -1045.55-1336.6
GRID     18017          2854.6  -1054.71-1336.6
GRID     18018          2854.6  -1035.55-1326.6
GRID     18019          2854.6  -1038.48-1333.67
GRID     18020          2854.6  -1035.55-1261.8
GRID     18021          2854.6  -1035.55-1313.8
GRID     18022          2854.6  -1035.55-1305.
GRID     18023          2854.6  -1035.55-1294.2
GRID     18024          2854.6  -1035.55-1283.4
GRID     18025          2854.6  -1035.55-1272.6
GRID     18026          2854.6  -1045.55-1251.8
GRID     18027          2854.6  -1038.48-1254.73
GRID     18028          2854.6  -1136.  -1251.8
GRID     18029          2854.6  -1055.6 -1251.8
GRID     18030          2854.6  -1065.65-1251.8
GRID     18031          2854.6  -1075.7 -1251.8
GRID     18032          2854.6  -1085.75-1251.8
GRID     18033          2854.6  -1095.8 -1251.8
GRID     18034          2854.6  -1105.85-1251.8
GRID     18035          2854.6  -1115.9 -1251.8
GRID     18036          2854.6  -1125.95-1251.8
GRID     18037          2854.6  -1143.07-1254.73
GRID     18038          2854.6  -1137.44-1274.01
GRID     18039          2854.6  -1127.02-1278.94
GRID     18040          2854.6  -1117.91-1283.79
GRID     18041          2854.6  -1110.3 -1290.62
GRID     18042          2854.6  -1103.14-1296.8
GRID     18043          2854.6  -1095.76-1302.25
GRID     18044          2854.6  -1088.33-1307.66
GRID     18045          2854.6  -1081.18-1312.6
GRID     18046          2854.6  -1074.19-1317.88
GRID     18047          2854.6  -1067.98-1322.79
GRID     18048          2854.6  -1061.7 -1327.46
GRID     18049          2854.6  -1055.51-1329.13
GRID     18050          2854.6  -1049.41-1328.83
GRID     18051          2854.6  -1045.55-1326.6
GRID     18052          2854.6  -1041.73-1322.04
GRID     18053          2854.6  -1041.27-1313.66
GRID     18054          2854.6  -1045.55-1306.6
GRID     18055          2854.6  -1044.93-1295.01
GRID     18056          2854.6  -1045.55-1286.6
GRID     18057          2854.6  -1044.09-1275.44
GRID     18058          2854.6  -1045.55-1266.77
GRID     18059          2854.6  -1044.55-1260.46
GRID     18060          2854.6  -1049.92-1258.98
GRID     18061          2854.6  -1057.6 -1258.76
GRID     18062          2854.6  -1066.27-1260.4
GRID     18063          2854.6  -1105.53-1263.4
GRID     18064          2854.6  -1116.  -1261.8
GRID     18065          2854.6  -1123.65-1259.44
GRID     18066          2854.6  -1132.23-1257.86
GRID     18067          2854.6  -1140.15-1264.35
GRID     18068          2854.6  -1129.95-1267.82
GRID     18069          2854.6  -1120.44-1270.96
GRID     18070          2854.6  -1111.88-1273.8
GRID     18071          2854.6  -1104.49-1282.08
GRID     18072          2854.6  -1098.26-1289.55
GRID     18073          2854.6  -1089.82-1294.59
GRID     18074          2854.6  -1082.51-1300.11
GRID     18075          2854.6  -1075.64-1304.89
GRID     18076          2854.6  -1068.95-1310.08
GRID     18077          2854.6  -1063.09-1315.24
GRID     18078          2854.6  -1058.77-1319.67
GRID     18079          2854.6  -1053.55-1322.05
GRID     18080          2854.6  -1136.  -1261.8
GRID     18081          2854.6  -1099.75-1273.05
GRID     18082          2854.6  -1094.54-1282.65
GRID     18083          2854.6  -1086.05-1286.43
GRID     18084          2854.6  -1077.14-1291.72
GRID     18085          2854.6  -1070.24-1296.62
GRID     18086          2854.6  -1064.09-1301.03
GRID     18087          2854.6  -1059.64-1306.29
GRID     18088          2854.6  -1055.65-1311.49
GRID     18089          2854.6  -1047.88-1320.82
GRID     18090          2854.6  -1051.02-1266.08
GRID     18091          2854.6  -1066.65-1268.89
GRID     18092          2854.6  -1074.94-1271.53
GRID     18093          2854.6  -1084.34-1270.34
GRID     18094          2854.6  -1093.04-1268.74
GRID     18095          2854.6  -1051.4 -1274.52
GRID     18096          2854.6  -1057.84-1272.64
GRID     18097          2854.6  -1064.53-1277.3
GRID     18098          2854.6  -1081.53-1279.74
GRID     18099          2854.6  -1072.13-1282.24
GRID     18100          2854.6  -1064.48-1288.03
GRID     18101          2854.6  -1057.16-1292.81
GRID     18102          2854.6  -1052.86-1299.7
GRID     18103          2854.6  -1050.16-1307.55
GRID     18104          2854.6  -1046.82-1313.91
GRID     18105          2854.6  -1056.71-1281.65
GRID     18106          2854.6  -1089.79-1277.19
GRID     18107          2854.6  -1051.85-1315.76
GRID     18108          2857.6  -1146.  -1281.45 35
GRID     18109          2857.6  -1139.  -1286.47
GRID     18110          2857.6  -1132.  -1291.48 35
GRID     18111          2857.6  -1125.01-1296.49 35
GRID     18112          2857.6  -1118.01-1301.51 35
GRID     18113          2857.6  -1111.01-1306.52
GRID     18114          2857.6  -1104.01-1311.53 35
GRID     18115          2857.6  -1097.02-1316.55 35
GRID     18116          2857.6  -1090.02-1321.56
GRID     18117          2857.6  -1083.02-1326.57 35
GRID     18118          2857.6  -1076.02-1331.59 35
GRID     18119          2857.6  -1069.02-1336.6  35
GRID     18120          2860.4  -1146.  -1281.45 35
GRID     18121          2860.4  -1139.  -1286.47 35
GRID     18122          2860.4  -1132.  -1291.48 35
GRID     18123          2860.4  -1125.01-1296.49 35
GRID     18124          2860.4  -1118.01-1301.51 35
GRID     18125          2860.4  -1111.01-1306.52 35
GRID     18126          2860.4  -1104.01-1311.53 35
GRID     18127          2860.4  -1097.02-1316.55 35
GRID     18128          2860.4  -1090.02-1321.56 35
GRID     18129          2860.4  -1083.02-1326.57 35
GRID     18130          2860.4  -1076.02-1331.59 35
GRID     18131          2860.4  -1069.02-1336.6  35
GRID     18132          2854.6  -1058.33-1265.61
GRID     18133          2854.6  -1085.7 -1261.16
GRID     20000          2854.6  -1251.16-1258.63 33
GRID     20001          2854.6  -1248.55-1262.22 33
GRID     20002          2854.6  -1245.14-1266.92 33
GRID     20003          2854.6  -1241.72-1271.63 33
GRID     20004          2854.6  -1239.11-1275.22 33
GRID     20005          2854.6  -1269.31-1233.65 33
GRID     20006          2854.6  -1258.  -1249.22 33
GRID     20007          2854.6  -1254.58-1253.92 33
GRID     20008          2854.6  -1247.45-1255.93
GRID     20009          2854.6  -1244.81-1259.49
GRID     20010          2854.6  -1241.35-1264.14
GRID     20011          2854.6  -1237.89-1268.78
GRID     20012          2854.6  -1235.25-1272.34
GRID     20013          2854.6  -1231.79-1276.99
GRID     20014          2854.6  -1228.33-1281.64
GRID     20015          2854.6  -1224.9 -1286.26
GRID     20016          2854.6  -1220.42-1292.28
GRID     20017          2854.6  -1217.71-1281.19
GRID     20018          2854.6  -1211.24-1276.49
GRID     20019          2854.6  -1204.77-1271.79
GRID     20020          2854.6  -1198.3 -1267.08
GRID     20021          2854.6  -1221.11-1276.52
GRID     20022          2854.6  -1214.64-1271.81
GRID     20023          2854.6  -1208.73-1267.68
GRID     20024          2854.6  -1201.69-1262.41
GRID     20025          2854.6  -1224.53-1271.81
GRID     20026          2854.6  -1218.05-1267.11
GRID     20027          2854.6  -1211.58-1262.41
GRID     20028          2854.6  -1205.11-1257.71
GRID     20029          2854.6  -1228.51-1267.68
GRID     20030          2854.6  -1221.47-1262.41
GRID     20031          2854.6  -1215.  -1257.71
GRID     20032          2854.6  -1208.53-1253.
GRID     20033          2854.6  -1230.55-1263.52
GRID     20034          2854.6  -1224.08-1258.81
GRID     20035          2854.6  -1217.61-1254.11
GRID     20036          2854.6  -1211.14-1249.41
GRID     20037          2854.6  -1233.97-1258.81
GRID     20038          2854.6  -1227.5 -1254.11
GRID     20039          2854.6  -1221.03-1249.41
GRID     20040          2854.6  -1214.55-1244.71
GRID     20041          2854.6  -1237.39-1254.11
GRID     20042          2854.6  -1230.91-1249.41
GRID     20043          2854.6  -1224.44-1244.71
GRID     20044          2854.6  -1217.97-1240.
GRID     20045          2854.6  -1240.  -1250.52
GRID     20046          2854.6  -1233.53-1245.81
GRID     20047          2854.6  -1227.05-1241.11
GRID     20048          2854.6  -1220.58-1236.41
GRID     20049          2854.6  -1213.04-1287.62
GRID     20050          2854.6  -1208.13-1280.77
GRID     20051          2854.6  -1203.21-1273.93
GRID     20052          2854.6  -1250.78-1251.45
GRID     20053          2854.6  -1242.84-1246.2
GRID     20054          2854.6  -1236.17-1241.8
GRID     20055          2854.6  -1229.5 -1237.4
GRID     20056          2854.6  -1222.98-1233.11
GRID     20057          2854.6  -1232.78-1233.22
GRID     20058          2854.6  -1262.95-1235.09
GRID     20059          2854.6  -1260.29-1238.67
GRID     20060          2854.6  -1257.33-1242.65
GRID     20061          2854.6  -1254.38-1246.62
GRID     20062          2854.6  -1246.83-1241.11
GRID     20063          2854.6  -1249.62-1237.27
GRID     20064          2854.6  -1252.41-1233.43
GRID     20065          2854.6  -1242.6 -1233.33 33
GRID     20066          2854.6  -1239.38-1237.56
GRID     20067          2875.72 -1251.16-1258.63 33
GRID     20068          2866.72 -1251.92-1257.58 33
GRID     20069          2875.72 -1248.55-1262.22 33
GRID     20070          2866.72 -1248.55-1262.22 33
GRID     20071          2875.72 -1245.14-1266.92 33
GRID     20072          2866.72 -1245.14-1266.92 33
GRID     20073          2875.72 -1241.72-1271.63 33
GRID     20074          2866.72 -1241.72-1271.63 33
GRID     20075          2875.72 -1239.11-1275.22 33
GRID     20076          2866.72 -1239.78-1274.3  33
GRID     20077          2875.72 -1235.69-1279.92 33
GRID     20078          2866.72 -1235.69-1279.92 33
GRID     20079          2854.6  -1235.69-1279.92 33
GRID     20080          2875.72 -1232.27-1284.63 33
GRID     20081          2866.72 -1232.27-1284.63 33
GRID     20082          2854.6  -1232.27-1284.63 33
GRID     20083          2875.72 -1228.88-1289.3  33
GRID     20084          2866.72 -1228.88-1289.3  33
GRID     20085          2854.6  -1228.88-1289.3  33
GRID     20086          2875.72 -1222.34-1298.3  33
GRID     20087          2866.72 -1222.34-1298.3  33
GRID     20088          2854.6  -1222.34-1298.3  33
GRID     20089          2875.72 -1269.36-1233.58 33
GRID     20090          2866.72 -1269.34-1233.61 33
GRID     20091          2875.72 -1266.73-1237.2  33
GRID     20092          2866.72 -1266.71-1237.22 33
GRID     20093          2854.6  -1266.69-1237.25 33
GRID     20094          2875.72 -1264.1 -1240.82 33
GRID     20095          2866.72 -1264.09-1240.84 33
GRID     20096          2854.6  -1264.07-1240.86 33
GRID     20097          2875.72 -1261.06-1245.01 33
GRID     20098          2866.72 -1261.05-1245.02 33
GRID     20099          2854.6  -1261.03-1245.04 33
GRID     20100          2875.72 -1258.01-1249.2  33
GRID     20101          2866.72 -1258.01-1249.21 33
GRID     20102          2875.72 -1254.59-1253.91 33
GRID     20103          2866.72 -1254.59-1253.92 33
GRID     22003          2854.6  -1050.4 -1513.44
GRID     22004          2854.6  -1050.4 -1537.57
GRID     22005          2854.6  -1050.4 -1561.7
GRID     22006          2854.6  -1050.4 -1585.82
GRID     22007          2854.6  -1009.6 -1594.15
GRID     22008          2854.6  -1009.6 -1572.18
GRID     22009          2854.6  -1009.6 -1549.53
GRID     22013          2854.6  -1057.4 -1594.6
GRID     22014          2854.6  -1049.57-1596.2
GRID     22015          2854.6  -1041.74-1597.79
GRID     22016          2854.6  -1033.91-1599.39
GRID     22017          2854.6  -1026.09-1600.99
GRID     22018          2854.6  -1018.26-1602.59
GRID     22019          2854.6  -1010.43-1604.18
GRID     22020          2854.6  -1002.6 -1605.78
GRID     22021          2854.6  -1057.4 -1584.59
GRID     22023          2854.6  -1041.74-1588.37
GRID     22024          2854.6  -1033.91-1590.26
GRID     22025          2854.6  -1026.09-1592.14
GRID     22026          2854.6  -1018.26-1594.03
GRID     22028          2854.6  -1002.6 -1597.81
GRID     22029          2854.6  -1057.4 -1574.58
GRID     22030          2854.6  -1049.57-1576.76
GRID     22031          2854.6  -1041.74-1578.94
GRID     22032          2854.6  -1033.91-1581.12
GRID     22033          2854.6  -1026.09-1583.3
GRID     22034          2854.6  -1018.26-1585.48
GRID     22035          2854.6  -1010.43-1587.66
GRID     22036          2854.6  -1002.6 -1589.83
GRID     22037          2854.6  -1057.4 -1564.58
GRID     22038          2854.6  -1049.57-1567.05
GRID     22039          2854.6  -1041.74-1569.51
GRID     22040          2854.6  -1033.91-1571.98
GRID     22041          2854.6  -1026.09-1574.45
GRID     22042          2854.6  -1018.26-1576.92
GRID     22043          2854.6  -1010.43-1579.39
GRID     22044          2854.6  -1002.6 -1581.86
GRID     22045          2854.6  -1057.4 -1556.57
GRID     22047          2854.6  -1041.74-1562.09
GRID     22048          2854.6  -1033.91-1562.85
GRID     22049          2854.6  -1026.09-1565.61
GRID     22050          2854.6  -1018.26-1568.37
GRID     22052          2854.6  -1002.6 -1573.89
GRID     22053          2854.6  -1057.4 -1544.56
GRID     22054          2854.6  -1049.57-1547.61
GRID     22055          2854.6  -1041.74-1550.66
GRID     22056          2854.6  -1033.91-1553.71
GRID     22057          2854.6  -1026.09-1556.76
GRID     22058          2854.6  -1018.26-1559.81
GRID     22059          2854.6  -1010.43-1562.86
GRID     22060          2854.6  -1002.6 -1565.91
GRID     22061          2854.6  -1057.4 -1534.55
GRID     22063          2854.6  -1041.74-1541.23
GRID     22064          2854.6  -1033.91-1544.58
GRID     22065          2854.6  -1026.09-1547.92
GRID     22066          2854.6  -1018.26-1551.26
GRID     22067          2854.6  -1010.43-1554.6
GRID     22068          2854.6  -1002.6 -1557.94
GRID     22069          2854.6  -1057.4 -1524.54
GRID     22070          2854.6  -1049.57-1528.18
GRID     22071          2854.6  -1041.74-1531.81
GRID     22072          2854.6  -1033.91-1535.44
GRID     22073          2854.6  -1026.09-1539.07
GRID     22074          2854.6  -1018.26-1544.7
GRID     22076          2854.6  -1002.6 -1549.97
GRID     22077          2854.6  -1057.4 -1512.54
GRID     22079          2854.6  -1041.74-1520.38
GRID     22080          2854.6  -1033.91-1526.3
GRID     22081          2854.6  -1026.09-1530.23
GRID     22082          2854.6  -1018.26-1534.15
GRID     22083          2854.6  -1010.43-1538.07
GRID     22084          2854.6  -1002.6 -1541.99
GRID     22085          2854.6  -1057.4 -1504.53
GRID     22086          2854.6  -1049.57-1508.74
GRID     22087          2854.6  -1041.74-1512.95
GRID     22088          2854.6  -1033.91-1517.17
GRID     22089          2854.6  -1026.09-1521.38
GRID     22090          2854.6  -1018.26-1525.59
GRID     22091          2854.6  -1010.43-1529.81
GRID     22092          2854.6  -1002.6 -1534.02
GRID     22093          2854.6  -1057.4 -1494.52
GRID     22094          2854.6  -1049.57-1499.02
GRID     22095          2854.6  -1041.74-1503.53
GRID     22096          2854.6  -1033.91-1508.03
GRID     22097          2854.6  -1026.09-1512.54
GRID     22098          2854.6  -1018.26-1517.04
GRID     22099          2854.6  -1010.43-1521.54
GRID     22100          2854.6  -1002.6 -1526.05
GRID     22101          2854.6  -1057.4 -1484.51
GRID     22102          2854.6  -1049.57-1489.31
GRID     22103          2854.6  -1041.74-1494.1
GRID     22104          2854.6  -1033.91-1498.9
GRID     22105          2854.6  -1026.09-1503.69
GRID     22106          2854.6  -1018.26-1508.48
GRID     22107          2854.6  -1010.43-1513.28
GRID     22108          2854.6  -1002.6 -1518.07
GRID     22109          2854.6  -1057.4 -1474.5
GRID     22110          2854.6  -1049.57-1479.59
GRID     22111          2854.6  -1041.74-1484.67
GRID     22112          2854.6  -1033.91-1489.76
GRID     22113          2854.6  -1026.09-1494.84
GRID     22114          2854.6  -1018.26-1497.93
GRID     22115          2854.6  -1009.6 -1501.44
GRID     22116          2854.6  -1002.6 -1508.1
GRID     22117          2854.6  -1057.4 -1462.5
GRID     22118          2854.6  -1050.4 -1464.33
GRID     22119          2854.6  -1041.74-1473.25
GRID     22120          2854.6  -1033.91-1480.62
GRID     22121          2854.6  -1026.09-1486.
GRID     22122          2854.6  -1018.26-1491.38
GRID     22123          2854.6  -1010.43-1496.75
GRID     22124          2854.6  -1002.6 -1502.13
GRID     22125          2854.6  -1057.4 -1454.49
GRID     22126          2854.6  -1049.57-1460.15
GRID     22127          2854.6  -1041.74-1465.82
GRID     22128          2854.6  -1033.91-1471.49
GRID     22129          2854.6  -1026.09-1477.15
GRID     22130          2854.6  -1018.26-1482.82
GRID     22131          2854.6  -1010.43-1488.49
GRID     22132          2854.6  -1002.6 -1494.15
GRID     22133          2854.6  -1057.4 -1442.48
GRID     22134          2854.6  -1050.4 -1444.33
GRID     22135          2854.6  -1041.74-1454.39
GRID     22136          2854.6  -1033.91-1462.35
GRID     22137          2854.6  -1026.09-1468.31
GRID     22138          2854.6  -1018.26-1474.27
GRID     22139          2854.6  -1009.6 -1481.44
GRID     22140          2854.6  -1002.6 -1486.18
GRID     22141          2854.6  -1057.4 -1434.47
GRID     22142          2854.6  -1049.57-1440.72
GRID     22143          2854.6  -1041.74-1446.97
GRID     22144          2854.6  -1033.91-1453.22
GRID     22145          2854.6  -1026.09-1459.46
GRID     22146          2854.6  -1018.26-1465.71
GRID     22147          2854.6  -1010.43-1471.96
GRID     22148          2854.6  -1002.6 -1478.21
GRID     22149          2854.6  -1057.4 -1424.46
GRID     22150          2854.6  -1049.57-1431.
GRID     22151          2854.6  -1041.74-1437.54
GRID     22152          2854.6  -1033.91-1444.08
GRID     22153          2854.6  -1026.09-1450.62
GRID     22154          2854.6  -1018.26-1457.16
GRID     22155          2854.6  -1009.6 -1461.44
GRID     22156          2854.6  -1002.6 -1470.24
GRID     22157          2854.6  -1057.4 -1416.45
GRID     22158          2854.6  -1050.4 -1424.33
GRID     22159          2854.6  -1041.74-1428.11
GRID     22160          2854.6  -1033.91-1434.94
GRID     22161          2854.6  -1026.09-1441.77
GRID     22162          2854.6  -1018.26-1448.6
GRID     22163          2854.6  -1010.43-1455.43
GRID     22164          2854.6  -1002.6 -1462.26
GRID     22165          2854.6  -1057.4 -1404.45
GRID     22166          2854.6  -1049.57-1411.57
GRID     22167          2854.6  -1041.74-1418.69
GRID     22168          2854.6  -1033.91-1425.81
GRID     22169          2854.6  -1026.09-1432.93
GRID     22170          2854.6  -1018.26-1440.05
GRID     22171          2854.6  -1010.43-1447.17
GRID     22172          2854.6  -1002.6 -1454.29
GRID     22173          2850.01 -997.8  -1606.92
GRID     22174          2850.01 -997.8  -1599.16
GRID     22175          2850.01 -997.8  -1591.39
GRID     22176          2850.01 -997.8  -1583.63
GRID     22177          2850.01 -997.8  -1575.86
GRID     22178          2850.01 -997.8  -1568.1
GRID     22179          2850.01 -997.8  -1560.33
GRID     22180          2850.01 -997.8  -1552.57
GRID     22181          2850.01 -997.8  -1544.8
GRID     22182          2850.01 -997.8  -1537.03
GRID     22183          2850.01 -997.8  -1529.27
GRID     22184          2850.01 -997.8  -1521.5
GRID     22185          2850.01 -997.8  -1513.74
GRID     22186          2850.01 -997.8  -1505.97
GRID     22187          2850.01 -997.8  -1498.21
GRID     22188          2850.01 -997.8  -1490.44
GRID     22189          2850.01 -997.8  -1482.68
GRID     22190          2850.01 -997.8  -1474.91
GRID     22191          2850.01 -997.8  -1467.15
GRID     22192          2850.01 -997.8  -1459.38
GRID     22193          2850.01 -1062.2 -1593.46
GRID     22194          2850.01 -1062.2 -1583.24
GRID     22195          2850.01 -1062.2 -1573.03
GRID     22196          2850.01 -1062.2 -1562.81
GRID     22197          2850.01 -1062.2 -1552.59
GRID     22198          2850.01 -1062.2 -1542.38
GRID     22199          2850.01 -1062.2 -1532.16
GRID     22200          2850.01 -1062.2 -1521.95
GRID     22201          2850.01 -1062.2 -1511.73
GRID     22202          2850.01 -1062.2 -1501.51
GRID     22203          2850.01 -1062.2 -1491.3
GRID     22204          2850.01 -1062.2 -1481.08
GRID     22205          2850.01 -1062.2 -1470.87
GRID     22206          2850.01 -1062.2 -1460.65
GRID     22207          2850.01 -1062.2 -1450.43
GRID     22208          2850.01 -1062.2 -1440.22
GRID     22209          2850.01 -1062.2 -1430.
GRID     22210          2850.01 -1062.2 -1419.79
GRID     22211          2850.01 -1062.2 -1409.57
GRID     22212          2850.01 -1062.2 -1399.35
GRID     22213          2841.61 -1062.2 -1591.42
GRID     22214          2841.61 -1062.2 -1581.45
GRID     22215          2841.61 -1062.2 -1571.48
GRID     22216          2841.61 -1062.2 -1561.52
GRID     22217          2841.61 -1062.2 -1551.55
GRID     22218          2841.61 -1062.2 -1541.59
GRID     22219          2841.61 -1062.2 -1531.62
GRID     22220          2841.61 -1062.2 -1521.65
GRID     22221          2841.61 -1062.2 -1511.69
GRID     22222          2841.61 -1062.2 -1501.72
GRID     22223          2841.61 -1062.2 -1491.75
GRID     22224          2841.61 -1062.2 -1481.79
GRID     22225          2841.61 -1062.2 -1471.82
GRID     22226          2841.61 -1062.2 -1461.85
GRID     22227          2841.61 -1062.2 -1451.89
GRID     22228          2841.61 -1062.2 -1441.92
GRID     22229          2841.61 -1062.2 -1431.96
GRID     22230          2841.61 -1062.2 -1421.99
GRID     22231          2841.61 -1062.2 -1412.02
GRID     22232          2841.61 -1062.2 -1402.06
GRID     22233          2841.61 -997.8  -1604.88
GRID     22234          2841.61 -997.8  -1597.37
GRID     22235          2841.61 -997.8  -1589.85
GRID     22236          2841.61 -997.8  -1582.33
GRID     22237          2841.61 -997.8  -1574.82
GRID     22238          2841.61 -997.8  -1567.3
GRID     22239          2841.61 -997.8  -1559.79
GRID     22240          2841.61 -997.8  -1552.27
GRID     22241          2841.61 -997.8  -1544.76
GRID     22242          2841.61 -997.8  -1537.24
GRID     22243          2841.61 -997.8  -1529.73
GRID     22244          2841.61 -997.8  -1522.21
GRID     22245          2841.61 -997.8  -1514.69
GRID     22246          2841.61 -997.8  -1507.18
GRID     22247          2841.61 -997.8  -1499.66
GRID     22248          2841.61 -997.8  -1492.15
GRID     22249          2841.61 -997.8  -1484.63
GRID     22250          2841.61 -997.8  -1477.12
GRID     22251          2841.61 -997.8  -1469.6
GRID     22252          2841.61 -997.8  -1462.09
GRID     24000          3454.44 -1080.77-1322.5
GRID     24001          3454.44 -1072.5 -1330.77
GRID     24002          3454.44 -1090.23-1313.04
GRID     24003          3454.44 -1105.23-1298.04
GRID     24004          3454.44 -1120.23-1283.04
GRID     24005          3454.44 -1128.36-1274.91
GRID     24006          3454.44 -1323.99-1269.27
GRID     24007          3454.44 -1315.25-1269.27
GRID     24008          3454.44 -1305.99-1269.27
GRID     24009          3454.44 -1295.25-1269.27
GRID     24010          3454.44 -1285.99-1269.27
GRID     24011          3454.44 -1275.99-1269.27
GRID     24012          3454.44 -1326.99-1308.11
GRID     24013          3454.44 -1322.06-1314.41
GRID     24014          3454.44 -1314.36-1324.26
GRID     24015          3454.44 -1306.67-1334.11
GRID     24016          3454.44 -1301.74-1340.41
GRID     24017          3454.44 -1329.99-1275.27
GRID     24018          3454.44 -1329.99-1281.51
GRID     24019          3454.44 -1329.99-1288.84
GRID     24020          3454.44 -1329.99-1296.84
GRID     24021          3454.44 -1295.25-1313.31
GRID     24022          3454.44 -1295.25-1296.69
GRID     24023          3454.44 -1285.35-1297.9
GRID     24024          3454.44 -1287.99-1304.27
GRID     24025          3454.44 -1295.25-1304.27
GRID     24026          3454.44 -1285.35-1310.63
GRID     24027          3454.44 -1287.99-1324.33
GRID     24028          3454.44 -1295.25-1324.33
GRID     24029          3454.44 -1278.99-1313.27
GRID     24030          3454.44 -1278.99-1324.33
GRID     24031          3454.44 -1272.33-1310.32
GRID     24032          3454.44 -1269.47-1324.33
GRID     24033          3454.44 -1295.25-1335.34
GRID     24034          3454.44 -1213.99-1317.27
GRID     24035          3454.44 -1204.92-1313.19
GRID     24036          3454.44 -1204.98-1324.33
GRID     24037          3454.44 -1214.02-1324.33
GRID     24038          3454.44 -1315.15-1275.12
GRID     24039          3454.44 -1323.99-1275.27
GRID     24040          3454.44 -1323.99-1281.51
GRID     24041          3454.44 -1315.05-1281.36
GRID     24042          3454.44 -1323.99-1288.84
GRID     24043          3454.44 -1314.93-1288.69
GRID     24044          3454.44 -1323.99-1296.84
GRID     24045          3454.44 -1314.81-1296.69
GRID     24046          3454.44 -1323.99-1302.84
GRID     24047          3454.44 -1314.71-1302.69
GRID     24048          3454.44 -1305.99-1275.12
GRID     24049          3454.44 -1305.99-1281.36
GRID     24050          3454.44 -1305.99-1288.69
GRID     24051          3454.44 -1305.99-1296.69
GRID     24052          3454.44 -1305.99-1302.69
GRID     24053          3454.44 -1305.99-1314.41
GRID     24054          3454.44 -1295.25-1275.12
GRID     24055          3454.44 -1295.25-1281.36
GRID     24056          3454.44 -1295.25-1288.69
GRID     24057          3454.44 -1286.16-1275.12
GRID     24058          3454.44 -1286.16-1281.36
GRID     24059          3454.44 -1286.16-1288.69
GRID     24060          3454.44 -1277.08-1275.12
GRID     24061          3454.44 -1277.08-1281.36
GRID     24062          3454.44 -1277.08-1288.69
GRID     24063          3454.44 -1267.99-1269.27
GRID     24064          3454.44 -1267.99-1275.12
GRID     24065          3454.44 -1268.  -1282.27
GRID     24066          3454.44 -1272.65-1288.69
GRID     24067          3454.44 -1278.99-1295.27
GRID     24068          3454.44 -1272.14-1298.42
GRID     24069          3454.44 -1259.02-1282.32
GRID     24070          3454.44 -1250.04-1282.37
GRID     24071          3454.44 -1241.07-1282.41
GRID     24072          3454.44 -1232.09-1282.46
GRID     24073          3454.44 -1223.12-1282.51
GRID     24074          3454.44 -1223.13-1288.69
GRID     24075          3454.44 -1241.06-1288.69
GRID     24076          3454.44 -1232.08-1288.69
GRID     24077          3454.44 -1250.04-1288.69
GRID     24078          3454.44 -1259.02-1288.69
GRID     24079          3454.44 -1223.14-1295.07
GRID     24080          3454.44 -1232.07-1295.11
GRID     24081          3454.44 -1241.05-1295.15
GRID     24082          3454.44 -1250.04-1295.19
GRID     24083          3454.44 -1259.02-1295.23
GRID     24084          3454.44 -1241.04-1304.27
GRID     24085          3454.44 -1232.05-1304.27
GRID     24086          3454.44 -1226.99-1304.27
GRID     24087          3454.44 -1259.01-1304.27
GRID     24088          3454.44 -1250.02-1304.27
GRID     24089          3454.44 -1270.  -1304.58
GRID     24090          3454.44 -1232.03-1313.22
GRID     24091          3454.44 -1223.17-1313.21
GRID     24092          3454.44 -1241.02-1313.23
GRID     24093          3454.44 -1259.01-1313.26
GRID     24094          3454.44 -1250.01-1313.24
GRID     24095          3454.44 -1258.99-1324.34
GRID     24096          3454.44 -1249.99-1324.36
GRID     24097          3454.44 -1241.  -1324.38
GRID     24098          3454.44 -1232.  -1324.39
GRID     24099          3454.44 -1223.19-1324.41
GRID     24100          3454.44 -1269.73-1331.8
GRID     24101          3454.44 -1258.98-1331.82
GRID     24102          3454.44 -1249.98-1331.83
GRID     24103          3454.44 -1240.98-1331.85
GRID     24104          3454.44 -1231.98-1331.86
GRID     24105          3454.44 -1223.2 -1331.88
GRID     24106          3454.44 -1269.82-1339.45
GRID     24107          3454.44 -1258.82-1339.44
GRID     24108          3454.44 -1249.84-1339.43
GRID     24109          3454.44 -1240.86-1339.42
GRID     24110          3454.44 -1231.88-1339.42
GRID     24111          3454.44 -1223.15-1339.41
GRID     24112          3454.44 -1287.99-1335.24
GRID     24113          3454.44 -1285.58-1339.47
GRID     24114          3454.44 -1278.79-1339.46
GRID     24115          3454.44 -1278.99-1331.8
GRID     24116          3454.44 -1213.99-1288.69
GRID     24117          3454.44 -1213.99-1291.27
GRID     24118          3454.44 -1205.04-1339.39
GRID     24119          3454.44 -1194.9 -1339.38
GRID     24120          3454.44 -1185.09-1339.37
GRID     24121          3454.44 -1175.28-1339.36
GRID     24122          3454.44 -1165.47-1339.35
GRID     24123          3454.44 -1156.01-1339.34
GRID     24124          3454.44 -1155.95-1332.11
GRID     24125          3454.44 -1165.45-1332.05
GRID     24126          3454.44 -1175.27-1331.99
GRID     24127          3454.44 -1185.09-1331.92
GRID     24128          3454.44 -1194.91-1331.86
GRID     24129          3454.44 -1205.03-1331.8
GRID     24130          3454.44 -1155.9 -1324.64
GRID     24131          3454.44 -1165.45-1324.58
GRID     24132          3454.44 -1175.27-1324.52
GRID     24133          3454.44 -1185.09-1324.45
GRID     24134          3454.44 -1194.91-1324.39
GRID     24135          3454.44 -1194.91-1313.17
GRID     24136          3454.44 -1185.09-1313.16
GRID     24137          3454.44 -1175.27-1313.15
GRID     24138          3454.44 -1165.45-1313.14
GRID     24139          3454.44 -1153.27-1309.81
GRID     24140          3454.44 -1200.99-1304.27
GRID     24141          3454.44 -1194.91-1304.25
GRID     24142          3454.44 -1185.09-1304.25
GRID     24143          3454.44 -1175.27-1304.26
GRID     24144          3454.44 -1165.45-1304.26
GRID     24145          3454.44 -1155.77-1304.27
GRID     24146          3454.44 -1153.75-1299.13
GRID     24147          3454.44 -1165.45-1296.62
GRID     24148          3454.44 -1175.27-1296.24
GRID     24149          3454.44 -1185.09-1295.85
GRID     24150          3454.44 -1194.91-1295.46
GRID     24151          3454.44 -1204.81-1295.07
GRID     24152          3454.44 -1165.45-1289.
GRID     24153          3454.44 -1155.67-1289.06
GRID     24154          3454.44 -1194.91-1288.81
GRID     24155          3454.44 -1185.09-1288.88
GRID     24156          3454.44 -1175.27-1288.94
GRID     24157          3454.44 -1204.77-1288.75
GRID     24158          3454.44 -1204.73-1282.6
GRID     24159          3454.44 -1194.91-1282.65
GRID     24160          3454.44 -1185.09-1282.7
GRID     24161          3454.44 -1175.27-1282.76
GRID     24162          3454.44 -1165.45-1282.81
GRID     24163          3454.44 -1155.63-1282.86
GRID     24164          3454.44 -1214.04-1331.8
GRID     24165          3454.44 -1213.95-1339.4
GRID     24166          3454.44 -1213.95-1282.55
GRID     24167          3454.44 -1260.73-1274.33
GRID     24168          3454.44 -1250.04-1274.33
GRID     24169          3454.44 -1250.04-1269.27
GRID     24170          3454.44 -1255.99-1269.27
GRID     24171          3454.44 -1241.07-1269.27
GRID     24172          3454.44 -1241.07-1274.33
GRID     24173          3454.44 -1232.09-1274.33
GRID     24174          3454.44 -1232.09-1269.27
GRID     24175          3454.44 -1223.12-1269.27
GRID     24176          3454.44 -1223.12-1274.33
GRID     24177          3454.44 -1213.95-1269.27
GRID     24178          3454.44 -1213.95-1274.33
GRID     24179          3454.44 -1204.73-1274.33
GRID     24180          3454.44 -1204.73-1269.27
GRID     24181          3454.44 -1194.91-1269.27
GRID     24182          3454.44 -1194.91-1274.33
GRID     24183          3454.44 -1185.09-1274.33
GRID     24184          3454.44 -1185.09-1269.27
GRID     24185          3454.44 -1175.27-1269.27
GRID     24186          3454.44 -1175.27-1274.33
GRID     24187          3454.44 -1165.45-1274.33
GRID     24188          3454.44 -1165.45-1269.27
GRID     24189          3454.44 -1155.63-1269.27
GRID     24190          3454.44 -1155.63-1274.33
GRID     24191          3454.44 -1148.92-1269.27
GRID     24192          3454.44 -1148.92-1274.33
GRID     24193          3454.44 -1138.99-1269.37
GRID     24194          3454.44 -1138.62-1273.13
GRID     24195          3454.44 -1148.92-1282.89
GRID     24196          3454.44 -1141.88-1282.93
GRID     24197          3454.44 -1132.67-1277.05
GRID     24198          3454.44 -1131.05-1282.99
GRID     24199          3454.44 -1149.14-1289.29
GRID     24200          3454.44 -1142.11-1289.53
GRID     24201          3454.44 -1131.29-1289.9
GRID     24202          3454.44 -1120.47-1290.28
GRID     24203          3454.44 -1148.99-1297.27
GRID     24204          3454.44 -1144.1 -1299.26
GRID     24205          3454.44 -1131.35-1297.5
GRID     24206          3454.44 -1120.53-1297.73
GRID     24207          3454.44 -1112.73-1290.54
GRID     24208          3454.44 -1112.88-1297.88
GRID     24209          3454.44 -1141.99-1304.27
GRID     24210          3454.44 -1131.35-1304.27
GRID     24211          3454.44 -1120.53-1304.27
GRID     24212          3454.44 -1112.88-1304.27
GRID     24213          3454.44 -1105.23-1304.27
GRID     24214          3454.44 -1144.19-1309.36
GRID     24215          3454.44 -1131.58-1311.79
GRID     24216          3454.44 -1120.77-1312.12
GRID     24217          3454.44 -1113.12-1312.35
GRID     24218          3454.44 -1105.48-1312.58
GRID     24219          3454.44 -1099.  -1304.27
GRID     24220          3454.44 -1099.26-1312.77
GRID     24221          3454.44 -1148.99-1311.27
GRID     24222          3454.44 -1148.62-1324.43
GRID     24223          3454.44 -1141.85-1324.24
GRID     24224          3454.44 -1131.23-1323.94
GRID     24225          3454.44 -1120.44-1323.63
GRID     24226          3454.44 -1112.81-1323.41
GRID     24227          3454.44 -1105.17-1323.2
GRID     24228          3454.44 -1098.97-1323.02
GRID     24229          3454.44 -1089.95-1322.76
GRID     24230          3454.44 -1148.5 -1331.99
GRID     24231          3454.44 -1148.52-1339.34
GRID     24232          3454.44 -1141.72-1331.88
GRID     24233          3454.44 -1141.75-1339.33
GRID     24234          3454.44 -1131.11-1331.71
GRID     24235          3454.44 -1131.14-1339.32
GRID     24236          3454.44 -1120.31-1331.54
GRID     24237          3454.44 -1120.34-1339.31
GRID     24238          3454.44 -1112.68-1331.42
GRID     24239          3454.44 -1112.7 -1339.3
GRID     24240          3454.44 -1105.05-1331.29
GRID     24241          3454.44 -1098.84-1331.19
GRID     24242          3454.44 -1105.07-1339.29
GRID     24243          3454.44 -1098.85-1339.29
GRID     24244          3454.44 -1089.82-1331.05
GRID     24245          3454.44 -1089.82-1339.27
GRID     24246          3454.44 -1080.63-1330.9
GRID     24247          3454.44 -1080.63-1339.27
GRID     24248          3454.44 -1075.49-1339.27
GRID     24249          3477.58 -1329.99-1288.84
GRID     24250          3469.58 -1329.99-1288.84
GRID     24251          3469.58 -1329.99-1296.84
GRID     24252          3477.58 -1329.99-1266.84
GRID     24253          3475.24 -1329.99-1261.18
GRID     24254          3469.58 -1329.99-1258.84
GRID     24255          3469.58 -1329.99-1266.84
GRID     24256          3463.83 -1329.99-1261.28
GRID     24257          3461.3  -1329.99-1266.84
GRID     24258          3469.58 -1329.99-1274.17
GRID     24259          3461.3  -1329.99-1274.17
GRID     24260          3461.3  -1329.99-1281.51
GRID     24261          3469.58 -1329.99-1281.51
GRID     24262          3461.3  -1329.99-1288.84
GRID     24263          3461.3  -1329.99-1296.84
GRID     24264          3477.58 -1329.99-1281.51
GRID     24265          3477.58 -1329.99-1274.17
GRID     24266          3513.14 -1323.99-1269.27
GRID     24267          3513.14 -1315.99-1269.27
GRID     24268          3513.14 -1305.99-1269.27
GRID     24269          3513.14 -1295.99-1269.27
GRID     24270          3513.14 -1285.99-1269.27
GRID     24271          3513.14 -1275.99-1269.27
GRID     24272          3513.14 -1267.99-1269.27
GRID     24273          3501.86 -1323.99-1269.27
GRID     24274          3492.37 -1323.99-1269.27
GRID     24275          3482.89 -1323.99-1269.27
GRID     24276          3473.41 -1323.99-1269.27
GRID     24277          3463.92 -1323.99-1269.27
GRID     24278          3501.86 -1315.99-1269.27
GRID     24279          3492.37 -1315.99-1269.27
GRID     24280          3482.89 -1315.99-1269.27
GRID     24281          3473.41 -1315.99-1269.27
GRID     24282          3463.92 -1315.99-1269.27
GRID     24283          3501.86 -1305.99-1269.27
GRID     24284          3492.37 -1305.99-1269.27
GRID     24285          3482.89 -1305.99-1269.27
GRID     24286          3473.41 -1305.99-1269.27
GRID     24287          3463.92 -1305.99-1269.27
GRID     24288          3501.86 -1295.99-1269.27
GRID     24289          3492.37 -1295.99-1269.27
GRID     24290          3482.89 -1295.99-1269.27
GRID     24291          3473.41 -1295.99-1269.27
GRID     24292          3463.92 -1295.99-1269.27
GRID     24293          3501.86 -1285.99-1269.27
GRID     24294          3492.37 -1285.99-1269.27
GRID     24295          3482.89 -1285.99-1269.27
GRID     24296          3473.41 -1285.99-1269.27
GRID     24297          3463.92 -1285.99-1269.27
GRID     24298          3501.86 -1275.99-1269.27
GRID     24299          3492.37 -1275.99-1269.27
GRID     24300          3482.89 -1275.99-1269.27
GRID     24301          3473.41 -1275.99-1269.27
GRID     24302          3463.92 -1275.99-1269.27
GRID     24303          3501.86 -1267.99-1269.27
GRID     24304          3492.37 -1267.99-1269.27
GRID     24305          3482.89 -1267.99-1269.27
GRID     24306          3473.41 -1267.99-1269.27
GRID     24307          3463.92 -1267.99-1269.27
GRID     24308          3513.14 -1323.99-1259.87
GRID     24309          3513.14 -1315.99-1251.87
GRID     24310          3513.14 -1315.99-1259.87
GRID     24311          3513.14 -1305.99-1251.87
GRID     24312          3513.14 -1305.99-1259.87
GRID     24313          3513.14 -1295.99-1251.87
GRID     24314          3513.14 -1295.99-1259.87
GRID     24315          3513.14 -1285.99-1251.87
GRID     24316          3513.14 -1285.99-1259.87
GRID     24317          3513.14 -1275.99-1251.87
GRID     24318          3513.14 -1275.99-1259.87
GRID     24319          3513.14 -1267.99-1259.87
GRID     24320          3513.14 -1080.77-1322.5
GRID     24321          3513.14 -1090.23-1313.04
GRID     24322          3513.14 -1105.23-1298.04
GRID     24323          3513.14 -1120.23-1283.04
GRID     24324          3513.14 -1128.23-1275.04
GRID     24325          3513.14 -1072.23-1331.04
GRID     24326          3500.34 -1072.28-1330.99
GRID     24327          3499.96 -1080.77-1322.5
GRID     24328          3489.34 -1072.33-1330.94
GRID     24329          3485.59 -1078.72-1324.55
GRID     24330          3499.96 -1090.23-1313.04
GRID     24331          3488.58 -1090.23-1313.04
GRID     24332          3476.86 -1083.09-1320.18
GRID     24333          3477.2  -1090.23-1313.04
GRID     24334          3463.34 -1072.45-1330.81
GRID     24335          3467.54 -1079.39-1323.87
GRID     24336          3465.82 -1090.23-1313.04
GRID     24337          3499.96 -1120.23-1283.04
GRID     24338          3488.58 -1120.23-1283.04
GRID     24339          3477.2  -1120.23-1283.04
GRID     24340          3465.82 -1120.23-1283.04
GRID     24341          3500.34 -1128.36-1274.91
GRID     24342          3489.34 -1128.36-1274.91
GRID     24343          3476.34 -1128.36-1274.91
GRID     24344          3463.34 -1128.36-1274.91
GRID     24345          3513.14 -1112.73-1290.54
GRID     24346          3499.96 -1112.73-1290.54
GRID     24347          3488.58 -1112.73-1290.54
GRID     24348          3477.2  -1112.73-1290.54
GRID     24349          3465.82 -1112.73-1290.54
GRID     24350          3465.82 -1105.23-1298.04
GRID     24351          3477.2  -1105.23-1298.04
GRID     24352          3488.58 -1105.23-1298.04
GRID     24353          3499.96 -1105.23-1298.04
GRID     24354          3513.14 -1099.  -1304.27
GRID     24355          3499.96 -1099.  -1304.27
GRID     24356          3488.58 -1099.  -1304.27
GRID     24357          3477.2  -1099.  -1304.27
GRID     24358          3465.82 -1099.  -1304.27
GRID     24359          3513.14 -1046.8 -1277.5
GRID     24360          3513.14 -1048.23-1269.5
GRID     24361          3513.14 -1059.6 -1269.5
GRID     24362          3513.14 -1059.6 -1277.5
GRID     24363          3513.14 -1046.81-1291.6
GRID     24364          3513.14 -1059.61-1292.5
GRID     24365          3513.14 -1040.23-1277.5
GRID     24366          3513.14 -1040.23-1292.5
GRID     24367          3513.14 -1046.81-1306.6
GRID     24368          3513.14 -1059.62-1307.5
GRID     24369          3513.14 -1040.23-1307.5
GRID     24370          3513.14 -1040.23-1322.5
GRID     24371          3513.14 -1046.81-1321.6
GRID     24372          3513.14 -1048.23-1330.5
GRID     24373          3513.14 -1059.63-1330.5
GRID     24374          3513.14 -1075.23-1269.5
GRID     24375          3513.14 -1075.23-1277.5
GRID     24376          3513.14 -1075.23-1292.5
GRID     24377          3513.14 -1075.23-1307.5
GRID     24378          3513.14 -1059.62-1322.5
GRID     24379          3513.14 -1090.23-1269.5
GRID     24380          3513.14 -1090.23-1277.5
GRID     24381          3513.14 -1090.23-1292.5
GRID     24382          3513.14 -1105.23-1269.5
GRID     24383          3513.14 -1105.23-1277.5
GRID     24384          3513.14 -1090.23-1259.
GRID     24385          3513.14 -1075.23-1259.
GRID     24386          3513.14 -1067.23-1259.
GRID     24387          3513.14 -1105.23-1259.
GRID     24388          3513.14 -1120.23-1259.
GRID     24389          3513.14 -1120.23-1269.5
GRID     24390          3513.14 -1128.23-1259.
GRID     24391          3513.14 -1128.23-1269.5
GRID     24392          3513.14 -1120.23-1251.
GRID     24393          3513.14 -1105.23-1251.
GRID     24394          3513.14 -1090.23-1251.
GRID     24395          3513.14 -1075.23-1251.
GRID     24396          3510.74 -1326.99-1308.11
GRID     24397          3510.74 -1322.06-1314.41
GRID     24398          3510.74 -1314.36-1324.26
GRID     24399          3510.74 -1306.67-1334.11
GRID     24400          3510.74 -1301.74-1340.41
GRID     24401          3499.08 -1326.99-1308.11
GRID     24402          3499.08 -1322.06-1314.41
GRID     24403          3499.08 -1314.36-1324.26
GRID     24404          3499.08 -1306.67-1334.11
GRID     24405          3499.08 -1301.74-1340.41
GRID     24406          3487.92 -1326.99-1308.11
GRID     24407          3487.92 -1322.06-1314.41
GRID     24408          3487.92 -1314.36-1324.26
GRID     24409          3487.92 -1306.67-1334.11
GRID     24410          3487.92 -1301.74-1340.41
GRID     24411          3476.76 -1326.99-1308.11
GRID     24412          3476.76 -1322.06-1314.41
GRID     24413          3476.76 -1314.36-1324.26
GRID     24414          3476.76 -1306.67-1334.11
GRID     24415          3476.76 -1301.74-1340.41
GRID     24416          3465.6  -1326.99-1308.11
GRID     24417          3465.6  -1322.06-1314.41
GRID     24418          3465.6  -1314.36-1324.26
GRID     24419          3465.6  -1306.67-1334.11
GRID     24420          3465.6  -1301.74-1340.41
GRID     24421          3510.74 -1354.49-1329.59
GRID     24422          3510.74 -1349.56-1335.9
GRID     24423          3510.74 -1341.87-1345.75
GRID     24424          3510.74 -1334.17-1355.6
GRID     24425          3510.74 -1329.24-1361.9
GRID     24426          3510.74 -1348.18-1324.67
GRID     24427          3510.74 -1343.26-1330.97
GRID     24428          3510.74 -1335.56-1340.82
GRID     24429          3510.74 -1327.87-1350.67
GRID     24430          3510.74 -1322.94-1356.98
GRID     24431          3510.74 -1337.58-1316.39
GRID     24432          3510.74 -1332.66-1322.69
GRID     24433          3510.74 -1324.96-1332.54
GRID     24434          3510.74 -1317.27-1342.39
GRID     24435          3510.74 -1312.34-1348.69
GRID     24436          3451.49 -1194.92-1269.32
GRID     24437          3451.48 -1185.1 -1269.33
GRID     24438          3451.47 -1175.28-1269.34
GRID     24439          3451.46 -1165.45-1269.34
GRID     24440          3451.45 -1155.63-1269.35
GRID     24441          3451.45 -1148.92-1269.36
GRID     24442          3451.44 -1141.99-1269.36
GRID     24443          3451.54 -1252.99-1269.27
GRID     24444          3451.54 -1250.05-1269.27
GRID     24445          3451.53 -1241.07-1269.28
GRID     24446          3451.52 -1232.1 -1269.29
GRID     24447          3451.51 -1223.12-1269.29
GRID     24448          3451.5  -1213.95-1269.3
GRID     24449          3451.5  -1204.74-1269.31
GRID     24450          3451.54 -1078.49-1339.27
GRID     24451          3451.55 -1080.64-1339.27
GRID     24452          3451.55 -1089.82-1339.28
GRID     24453          3451.56 -1098.84-1339.29
GRID     24454          3451.57 -1105.05-1339.29
GRID     24455          3451.58 -1112.68-1339.3
GRID     24456          3451.58 -1120.31-1339.31
GRID     24457          3451.59 -1131.11-1339.32
GRID     24458          3451.6  -1141.73-1339.33
GRID     24459          3451.61 -1148.5 -1339.34
GRID     24460          3451.62 -1155.99-1339.34
GRID     24461          3451.63 -1165.46-1339.35
GRID     24462          3451.64 -1175.28-1339.36
GRID     24463          3451.65 -1185.1 -1339.37
GRID     24464          3451.65 -1194.92-1339.38
GRID     24465          3451.66 -1205.07-1339.39
GRID     24466          3451.67 -1213.99-1339.4
GRID     24467          3451.68 -1223.22-1339.41
GRID     24468          3451.69 -1231.96-1339.42
GRID     24469          3451.7  -1240.96-1339.42
GRID     24470          3451.71 -1249.96-1339.43
GRID     24471          3451.72 -1258.96-1339.44
GRID     24472          3451.73 -1269.99-1339.45
GRID     24473          3451.73 -1278.99-1339.46
GRID     24474          3451.74 -1282.6 -1339.46
GRID     25002          2864.   -1178.3 -1226.6
GRID     25003          3503.5  -1176.8 -1226.6
GRID     25004          3387.5  -1178.3 -1226.6
GRID     25005          3252.83 -1176.8 -1226.
GRID     25006          2864.   -1121.7 -1226.6
GRID     25007          2983.48 -1121.7 -1226.6
GRID     25008          3252.83 -1121.64-1226.6
GRID     25009          3387.5  -1121.64-1226.6
GRID     25010          3387.5  -1254.6 -1226.6
GRID     25011          3253.   -1254.6 -1226.6
GRID     25012          3084.   -1254.6 -1226.6
GRID     25013          2984.   -1254.6 -1226.6
GRID     25014          2864.   -1254.8 -1226.6
GRID     25015          3118.17 -1178.06-1226.6
GRID     25016          2863.8  -1044.29-1226.6
GRID     25017          2981.9  -1044.29-1226.6
GRID     25018          3084.   -1044.69-1226.6
GRID     25019          3252.63 -1044.29-1226.6
GRID     25020          3387.3  -1045.4 -1226.6
GRID     25021          3503.3  -1044.69-1226.6
GRID     25022          3118.15 -1121.7 -1226.6
GRID     25023          3502.5  -1121.7 -1226.6
GRID     25024          2853.59 -1054.6 -1226.6
GRID     25025          2863.57 -1054.6 -1226.6
GRID     25026          2873.55 -1054.6 -1226.6
GRID     25027          2883.52 -1054.6 -1226.6
GRID     25028          2893.5  -1054.6 -1226.6
GRID     25029          2903.48 -1054.6 -1226.6
GRID     25030          2913.45 -1054.6 -1226.6
GRID     25031          2923.43 -1054.6 -1226.6
GRID     25032          2933.41 -1054.6 -1226.6
GRID     25033          2943.39 -1054.6 -1226.6
GRID     25034          2953.36 -1054.6 -1226.6
GRID     25035          2963.34 -1054.6 -1226.6
GRID     25036          2973.32 -1054.6 -1226.6
GRID     25037          2983.3  -1054.6 -1226.6
GRID     25038          2993.27 -1054.6 -1226.6
GRID     25039          3003.25 -1054.6 -1226.6
GRID     25040          3013.23 -1054.6 -1226.6
GRID     25041          3023.2  -1054.6 -1226.6
GRID     25042          3033.18 -1054.6 -1226.6
GRID     25043          3043.16 -1054.6 -1226.6
GRID     25044          3053.14 -1054.6 -1226.6
GRID     25045          3063.11 -1054.6 -1226.6
GRID     25046          3073.09 -1054.6 -1226.6
GRID     25047          3083.07 -1054.6 -1226.6
GRID     25048          3093.05 -1054.6 -1226.6
GRID     25049          3103.02 -1054.6 -1226.6
GRID     25050          3113.   -1054.6 -1226.6
GRID     25051          3122.98 -1054.6 -1226.6
GRID     25052          3132.95 -1054.6 -1226.6
GRID     25053          3142.93 -1054.6 -1226.6
GRID     25054          3152.91 -1054.6 -1226.6
GRID     25055          3162.89 -1054.6 -1226.6
GRID     25056          3172.86 -1054.6 -1226.6
GRID     25057          3182.84 -1054.6 -1226.6
GRID     25058          3192.82 -1054.6 -1226.6
GRID     25059          3202.8  -1054.6 -1226.6
GRID     25060          3212.77 -1054.6 -1226.6
GRID     25061          3222.75 -1054.6 -1226.6
GRID     25062          3232.73 -1054.6 -1226.6
GRID     25063          3242.7  -1054.6 -1226.6
GRID     25064          3252.68 -1054.6 -1226.6
GRID     25065          3262.66 -1054.6 -1226.6
GRID     25066          3272.64 -1054.6 -1226.6
GRID     25067          3282.61 -1054.6 -1226.6
GRID     25068          3292.59 -1054.6 -1226.6
GRID     25069          3302.57 -1054.6 -1226.6
GRID     25070          3312.55 -1054.6 -1226.6
GRID     25071          3322.52 -1054.6 -1226.6
GRID     25072          3332.5  -1054.6 -1226.6
GRID     25073          3342.48 -1054.6 -1226.6
GRID     25074          3352.46 -1054.6 -1226.6
GRID     25075          3362.43 -1054.6 -1226.6
GRID     25076          3372.41 -1054.6 -1226.6
GRID     25077          3382.39 -1054.6 -1226.6
GRID     25078          3392.36 -1054.6 -1226.6
GRID     25079          3402.34 -1054.6 -1226.6
GRID     25080          3412.32 -1054.6 -1226.6
GRID     25081          3422.3  -1054.6 -1226.6
GRID     25082          3432.27 -1054.6 -1226.6
GRID     25083          3442.25 -1054.6 -1226.6
GRID     25084          3452.23 -1054.6 -1226.6
GRID     25085          3462.21 -1054.6 -1226.6
GRID     25086          3472.18 -1054.6 -1226.6
GRID     25087          3482.16 -1054.6 -1226.6
GRID     25088          3492.14 -1054.6 -1226.6
GRID     25089          3502.11 -1054.6 -1226.6
GRID     25090          3512.09 -1054.6 -1226.6
GRID     25091          2853.59 -1046.24-1226.6
GRID     25093          2863.57 -1035.2 -1226.6
GRID     25094          2873.55 -1046.24-1226.6
GRID     25095          2873.55 -1035.2 -1226.6
GRID     25096          2883.52 -1046.24-1226.6
GRID     25097          2883.52 -1035.2 -1226.6
GRID     25098          2893.5  -1046.24-1226.6
GRID     25099          2893.5  -1035.2 -1226.6
GRID     25100          2903.48 -1046.24-1226.6
GRID     25101          2903.48 -1035.2 -1226.6
GRID     25102          2913.45 -1046.24-1226.6
GRID     25103          2913.45 -1035.2 -1226.6
GRID     25104          2923.43 -1046.24-1226.6
GRID     25105          2923.43 -1035.2 -1226.6
GRID     25106          2933.41 -1046.24-1226.6
GRID     25107          2933.41 -1035.2 -1226.6
GRID     25108          2943.39 -1046.24-1226.6
GRID     25109          2943.39 -1035.2 -1226.6
GRID     25110          2953.36 -1046.24-1226.6
GRID     25111          2953.36 -1035.2 -1226.6
GRID     25112          2963.34 -1046.24-1226.6
GRID     25113          2963.34 -1035.2 -1226.6
GRID     25114          2973.32 -1046.24-1226.6
GRID     25115          2973.32 -1035.2 -1226.6
GRID     25116          2983.3  -1035.2 -1226.6
GRID     25117          2993.27 -1046.24-1226.6
GRID     25118          2993.27 -1035.2 -1226.6
GRID     25119          3003.25 -1046.24-1226.6
GRID     25120          3003.25 -1035.2 -1226.6
GRID     25121          3013.23 -1046.24-1226.6
GRID     25122          3013.23 -1035.2 -1226.6
GRID     25123          3023.2  -1046.24-1226.6
GRID     25124          3023.2  -1035.2 -1226.6
GRID     25125          3033.18 -1046.24-1226.6
GRID     25126          3033.18 -1035.2 -1226.6
GRID     25127          3043.16 -1046.24-1226.6
GRID     25128          3043.16 -1035.2 -1226.6
GRID     25129          3053.14 -1046.24-1226.6
GRID     25130          3053.14 -1035.2 -1226.6
GRID     25131          3063.11 -1046.24-1226.6
GRID     25132          3063.11 -1035.2 -1226.6
GRID     25133          3073.09 -1046.24-1226.6
GRID     25134          3073.09 -1035.2 -1226.6
GRID     25135          3083.07 -1035.2 -1226.6
GRID     25136          3093.05 -1046.24-1226.6
GRID     25137          3093.05 -1035.2 -1226.6
GRID     25138          3103.02 -1046.24-1226.6
GRID     25139          3103.02 -1035.2 -1226.6
GRID     25140          3113.   -1046.24-1226.6
GRID     25141          3113.   -1035.2 -1226.6
GRID     25142          3122.98 -1046.24-1226.6
GRID     25143          3122.98 -1035.2 -1226.6
GRID     25144          3132.95 -1046.24-1226.6
GRID     25145          3132.95 -1035.2 -1226.6
GRID     25146          3142.93 -1046.24-1226.6
GRID     25147          3142.93 -1035.2 -1226.6
GRID     25148          3152.91 -1046.24-1226.6
GRID     25149          3152.91 -1035.2 -1226.6
GRID     25150          3162.89 -1046.24-1226.6
GRID     25151          3162.89 -1035.2 -1226.6
GRID     25152          3172.86 -1046.24-1226.6
GRID     25153          3172.86 -1035.2 -1226.6
GRID     25154          3182.84 -1046.24-1226.6
GRID     25155          3182.84 -1035.2 -1226.6
GRID     25156          3192.82 -1046.24-1226.6
GRID     25157          3192.82 -1035.2 -1226.6
GRID     25158          3202.8  -1046.24-1226.6
GRID     25159          3202.8  -1035.2 -1226.6
GRID     25160          3212.77 -1046.24-1226.6
GRID     25161          3212.77 -1035.2 -1226.6
GRID     25162          3222.75 -1046.24-1226.6
GRID     25163          3222.75 -1035.2 -1226.6
GRID     25164          3232.73 -1046.24-1226.6
GRID     25165          3232.73 -1035.2 -1226.6
GRID     25166          3242.71 -1046.24-1226.6
GRID     25167          3242.7  -1035.2 -1226.6
GRID     25168          3252.68 -1035.2 -1226.6
GRID     25169          3262.66 -1046.24-1226.6
GRID     25170          3262.66 -1035.2 -1226.6
GRID     25171          3272.64 -1046.24-1226.6
GRID     25172          3272.64 -1035.2 -1226.6
GRID     25173          3282.61 -1046.24-1226.6
GRID     25174          3282.61 -1035.2 -1226.6
GRID     25175          3292.59 -1046.24-1226.6
GRID     25176          3292.59 -1035.2 -1226.6
GRID     25177          3302.57 -1046.24-1226.6
GRID     25178          3302.57 -1035.2 -1226.6
GRID     25179          3312.55 -1046.24-1226.6
GRID     25180          3312.55 -1035.2 -1226.6
GRID     25181          3322.52 -1046.24-1226.6
GRID     25182          3322.52 -1035.2 -1226.6
GRID     25183          3332.5  -1046.24-1226.6
GRID     25184          3332.5  -1035.2 -1226.6
GRID     25185          3342.48 -1046.24-1226.6
GRID     25186          3342.48 -1035.2 -1226.6
GRID     25187          3352.45 -1046.24-1226.6
GRID     25188          3352.46 -1035.2 -1226.6
GRID     25189          3362.43 -1046.24-1226.6
GRID     25190          3362.43 -1035.2 -1226.6
GRID     25191          3372.41 -1046.24-1226.6
GRID     25192          3372.41 -1035.2 -1226.6
GRID     25193          3382.39 -1046.24-1226.6
GRID     25194          3382.39 -1035.2 -1226.6
GRID     25195          3392.36 -1035.2 -1226.6
GRID     25196          3402.34 -1046.24-1226.6
GRID     25197          3402.34 -1035.2 -1226.6
GRID     25198          3412.32 -1046.24-1226.6
GRID     25199          3412.32 -1035.2 -1226.6
GRID     25200          3422.3  -1046.24-1226.6
GRID     25201          3422.3  -1035.2 -1226.6
GRID     25202          3432.27 -1046.24-1226.6
GRID     25203          3432.27 -1035.2 -1226.6
GRID     25204          3442.25 -1046.24-1226.6
GRID     25205          3442.25 -1035.2 -1226.6
GRID     25206          3452.23 -1046.24-1226.6
GRID     25207          3452.23 -1035.2 -1226.6
GRID     25208          3462.21 -1046.24-1226.6
GRID     25209          3462.21 -1035.2 -1226.6
GRID     25210          3472.18 -1046.24-1226.6
GRID     25211          3472.18 -1035.2 -1226.6
GRID     25212          3482.16 -1046.24-1226.6
GRID     25213          3482.16 -1035.2 -1226.6
GRID     25214          3492.14 -1046.24-1226.6
GRID     25215          3492.14 -1035.2 -1226.6
GRID     25216          3502.11 -1035.2 -1226.6
GRID     25217          3512.09 -1046.24-1226.6
GRID     25219          2853.59 -1054.6 -1183.8
GRID     25220          2863.57 -1054.6 -1183.8
GRID     25221          2873.55 -1054.6 -1183.8
GRID     25222          2883.52 -1054.6 -1183.8
GRID     25223          2893.5  -1054.6 -1183.8
GRID     25224          2903.48 -1054.6 -1183.8
GRID     25225          2913.45 -1054.6 -1183.8
GRID     25226          2923.43 -1054.6 -1183.8
GRID     25227          2933.41 -1054.6 -1183.8
GRID     25228          2943.39 -1054.6 -1183.8
GRID     25229          2953.36 -1054.6 -1183.8
GRID     25230          2963.34 -1054.6 -1183.8
GRID     25231          2973.32 -1054.6 -1183.8
GRID     25232          2983.3  -1054.6 -1183.8
GRID     25233          2993.27 -1054.6 -1183.8
GRID     25234          3003.25 -1054.6 -1183.8
GRID     25235          3013.23 -1054.6 -1183.8
GRID     25236          3023.2  -1054.6 -1183.8
GRID     25237          3033.18 -1054.6 -1183.8
GRID     25238          3043.16 -1054.6 -1183.8
GRID     25239          3053.14 -1054.6 -1183.8
GRID     25240          3063.11 -1054.6 -1183.8
GRID     25241          3073.09 -1054.6 -1183.8
GRID     25242          3083.07 -1054.6 -1183.8
GRID     25243          3093.05 -1054.6 -1183.8
GRID     25244          3103.02 -1054.6 -1183.8
GRID     25245          3113.   -1054.6 -1183.8
GRID     25246          3122.98 -1054.6 -1183.8
GRID     25247          3132.95 -1054.6 -1183.8
GRID     25248          3142.93 -1054.6 -1183.8
GRID     25249          3152.91 -1054.6 -1183.8
GRID     25250          3162.89 -1054.6 -1183.8
GRID     25251          3172.86 -1054.6 -1183.8
GRID     25252          3182.84 -1054.6 -1183.8
GRID     25253          3192.82 -1054.6 -1183.8
GRID     25254          3202.8  -1054.6 -1183.8
GRID     25255          3212.77 -1054.6 -1183.8
GRID     25256          3222.75 -1054.6 -1183.8
GRID     25257          3232.73 -1054.6 -1183.8
GRID     25258          3242.7  -1054.6 -1183.8
GRID     25259          3252.68 -1054.6 -1183.8
GRID     25260          3262.66 -1054.6 -1183.8
GRID     25261          3272.64 -1054.6 -1183.8
GRID     25262          3282.61 -1054.6 -1183.8
GRID     25263          3292.59 -1054.6 -1183.8
GRID     25264          3302.57 -1054.6 -1183.8
GRID     25265          3312.55 -1054.6 -1183.8
GRID     25266          3322.52 -1054.6 -1183.8
GRID     25267          3332.5  -1054.6 -1183.8
GRID     25268          3342.48 -1054.6 -1183.8
GRID     25269          3352.46 -1054.6 -1183.8
GRID     25270          3362.43 -1054.6 -1183.8
GRID     25271          3372.41 -1054.6 -1183.8
GRID     25272          3382.39 -1054.6 -1183.8
GRID     25273          3392.36 -1054.6 -1183.8
GRID     25274          3402.34 -1054.6 -1183.8
GRID     25275          3412.32 -1054.6 -1183.8
GRID     25276          3422.3  -1054.6 -1183.8
GRID     25277          3432.27 -1054.6 -1183.8
GRID     25278          3442.25 -1054.6 -1183.8
GRID     25279          3452.23 -1054.6 -1183.8
GRID     25280          3462.21 -1054.6 -1183.8
GRID     25281          3472.18 -1054.6 -1183.8
GRID     25282          3482.16 -1054.6 -1183.8
GRID     25283          3492.14 -1054.6 -1183.8
GRID     25284          3502.11 -1054.6 -1183.8
GRID     25285          3512.09 -1054.6 -1183.8
GRID     25286          2853.59 -1072.45-1183.8
GRID     25287          2863.57 -1072.45-1183.8
GRID     25288          2873.55 -1072.45-1183.8
GRID     25289          2883.52 -1072.45-1183.8
GRID     25290          2893.5  -1072.45-1183.8
GRID     25291          2903.48 -1072.45-1183.8
GRID     25292          2913.45 -1072.45-1183.8
GRID     25293          2921.59 -1072.45-1183.8
GRID     25294          2933.41 -1072.45-1183.8
GRID     25295          2943.39 -1072.45-1183.8
GRID     25296          2953.36 -1072.45-1183.8
GRID     25297          2963.34 -1072.45-1183.8
GRID     25298          2973.32 -1072.45-1183.8
GRID     25299          2983.3  -1072.45-1183.8
GRID     25300          2993.27 -1072.45-1183.8
GRID     25301          3003.25 -1072.45-1183.8
GRID     25302          3013.23 -1072.45-1183.8
GRID     25303          3016.59 -1072.45-1183.8
GRID     25304          3033.18 -1072.45-1183.8
GRID     25305          3043.16 -1072.45-1183.8
GRID     25306          3053.14 -1072.45-1183.8
GRID     25307          3063.11 -1072.45-1183.8
GRID     25308          3073.09 -1072.45-1183.8
GRID     25309          3083.07 -1072.45-1183.8
GRID     25310          3093.05 -1072.45-1183.8
GRID     25311          3103.02 -1072.45-1183.8
GRID     25312          3113.   -1072.45-1183.8
GRID     25313          3122.98 -1072.45-1183.8
GRID     25314          3132.95 -1072.45-1183.8
GRID     25315          3142.93 -1072.45-1183.8
GRID     25316          3152.91 -1072.45-1183.8
GRID     25317          3162.89 -1072.45-1183.8
GRID     25318          3172.86 -1072.45-1183.8
GRID     25319          3182.84 -1072.45-1183.8
GRID     25320          3187.81 -1072.45-1183.8
GRID     25321          3202.8  -1072.45-1183.8
GRID     25322          3212.77 -1072.45-1183.8
GRID     25323          3222.75 -1072.45-1183.8
GRID     25324          3232.73 -1072.45-1183.8
GRID     25325          3242.7  -1072.45-1183.8
GRID     25326          3252.68 -1072.45-1183.8
GRID     25327          3262.66 -1072.45-1183.8
GRID     25328          3272.64 -1072.45-1183.8
GRID     25329          3282.61 -1072.45-1183.8
GRID     25330          3292.59 -1072.45-1183.8
GRID     25331          3302.57 -1072.45-1183.8
GRID     25332          3312.55 -1072.45-1183.8
GRID     25333          3322.52 -1072.45-1183.8
GRID     25334          3332.5  -1072.45-1183.8
GRID     25335          3342.48 -1072.45-1183.8
GRID     25336          3352.45 -1072.45-1183.8
GRID     25337          3362.43 -1072.45-1183.8
GRID     25338          3372.41 -1072.45-1183.8
GRID     25339          3389.59 -1072.45-1183.8
GRID     25340          3392.36 -1072.45-1183.8
GRID     25341          3402.34 -1072.45-1183.8
GRID     25342          3412.32 -1072.45-1183.8
GRID     25343          3422.3  -1072.45-1183.8
GRID     25344          3435.09 -1072.45-1182.6
GRID     25345          3442.25 -1072.45-1183.8
GRID     25346          3452.23 -1072.45-1183.8
GRID     25347          3462.2  -1072.45-1183.8
GRID     25348          3472.18 -1072.45-1183.8
GRID     25349          3482.16 -1072.45-1183.8
GRID     25350          3492.14 -1072.45-1183.8
GRID     25351          3502.11 -1072.45-1183.8
GRID     25352          3512.09 -1072.45-1183.8
GRID     25353          2853.59 -1062.48-1183.8
GRID     25354          2863.57 -1062.48-1183.8
GRID     25355          2873.55 -1062.48-1183.8
GRID     25356          2883.52 -1062.48-1183.8
GRID     25357          2893.5  -1062.48-1183.8
GRID     25358          2903.48 -1062.48-1183.8
GRID     25359          2913.45 -1062.48-1183.8
GRID     25360          2923.43 -1062.48-1183.8
GRID     25361          2933.41 -1062.48-1183.8
GRID     25362          2943.39 -1062.48-1183.8
GRID     25363          2953.36 -1062.48-1183.8
GRID     25364          2963.34 -1062.48-1183.8
GRID     25365          2973.32 -1062.48-1183.8
GRID     25366          2983.3  -1062.48-1183.8
GRID     25367          2993.27 -1062.48-1183.8
GRID     25368          3003.25 -1062.48-1183.8
GRID     25369          3013.23 -1062.48-1183.8
GRID     25370          3023.2  -1062.48-1183.8
GRID     25371          3033.18 -1062.48-1183.8
GRID     25372          3043.16 -1062.48-1183.8
GRID     25373          3053.14 -1062.48-1183.8
GRID     25374          3063.11 -1062.48-1183.8
GRID     25375          3073.09 -1062.48-1183.8
GRID     25376          3083.07 -1062.48-1183.8
GRID     25377          3093.05 -1062.48-1183.8
GRID     25378          3103.02 -1062.48-1183.8
GRID     25379          3113.   -1062.48-1183.8
GRID     25380          3122.98 -1062.48-1183.8
GRID     25381          3132.96 -1062.48-1183.8
GRID     25382          3142.93 -1062.48-1183.8
GRID     25383          3152.91 -1062.48-1183.8
GRID     25384          3162.89 -1062.48-1183.8
GRID     25385          3172.86 -1062.48-1183.8
GRID     25386          3182.84 -1062.48-1183.8
GRID     25387          3192.82 -1062.48-1183.8
GRID     25388          3202.8  -1062.48-1183.8
GRID     25389          3212.77 -1062.48-1183.8
GRID     25390          3222.75 -1062.48-1183.8
GRID     25391          3232.73 -1062.48-1183.8
GRID     25392          3242.7  -1062.48-1183.8
GRID     25393          3252.68 -1062.48-1183.8
GRID     25394          3262.66 -1062.48-1183.8
GRID     25395          3272.64 -1062.48-1183.8
GRID     25396          3282.61 -1062.48-1183.8
GRID     25397          3292.59 -1062.48-1183.8
GRID     25398          3302.57 -1062.48-1183.8
GRID     25399          3312.55 -1062.48-1183.8
GRID     25400          3322.52 -1062.48-1183.8
GRID     25401          3332.5  -1062.48-1183.8
GRID     25402          3342.48 -1062.48-1183.8
GRID     25403          3352.45 -1062.48-1183.8
GRID     25404          3362.43 -1062.48-1183.8
GRID     25405          3372.41 -1062.48-1183.8
GRID     25406          3382.39 -1062.48-1183.8
GRID     25407          3392.36 -1062.48-1183.8
GRID     25408          3402.34 -1062.48-1183.8
GRID     25409          3412.32 -1062.48-1183.8
GRID     25410          3422.3  -1062.48-1183.8
GRID     25411          3432.27 -1062.48-1183.8
GRID     25412          3442.25 -1062.48-1183.8
GRID     25413          3452.23 -1062.48-1183.8
GRID     25414          3462.2  -1062.48-1183.8
GRID     25415          3472.18 -1062.48-1183.8
GRID     25416          3482.16 -1062.48-1183.8
GRID     25417          3492.14 -1062.48-1183.8
GRID     25418          3502.11 -1062.48-1183.8
GRID     25419          3512.09 -1062.48-1183.8
GRID     25420          2853.59 -1115.2 -1226.6
GRID     25421          2863.57 -1115.2 -1226.6
GRID     25422          2873.55 -1115.2 -1226.6
GRID     25423          2883.52 -1115.2 -1226.6
GRID     25424          2893.5  -1115.2 -1226.6
GRID     25425          2903.48 -1115.2 -1226.6
GRID     25426          2913.45 -1115.2 -1226.6
GRID     25427          2923.43 -1115.2 -1226.6
GRID     25428          2933.41 -1115.2 -1226.6
GRID     25429          2943.39 -1115.2 -1226.6
GRID     25430          2953.36 -1115.2 -1226.6
GRID     25431          2963.34 -1115.2 -1226.6
GRID     25432          2973.32 -1115.2 -1226.6
GRID     25433          2983.3  -1115.2 -1226.6
GRID     25434          2993.27 -1115.2 -1226.6
GRID     25435          3003.25 -1115.2 -1226.6
GRID     25436          3013.23 -1115.2 -1226.6
GRID     25437          3023.2  -1115.2 -1226.6
GRID     25438          3033.18 -1115.2 -1226.6
GRID     25439          3043.16 -1115.2 -1226.6
GRID     25440          3053.14 -1115.2 -1226.6
GRID     25441          3063.11 -1115.2 -1226.6
GRID     25442          3073.09 -1115.2 -1226.6
GRID     25443          3083.07 -1115.2 -1226.6
GRID     25444          3093.05 -1115.2 -1226.6
GRID     25445          3103.02 -1115.2 -1226.6
GRID     25446          3113.   -1115.2 -1226.6
GRID     25447          3122.98 -1115.2 -1226.6
GRID     25448          3132.95 -1115.2 -1226.6
GRID     25449          3142.93 -1115.2 -1226.6
GRID     25450          3152.91 -1115.2 -1226.6
GRID     25451          3162.89 -1115.2 -1226.6
GRID     25452          3172.86 -1115.2 -1226.6
GRID     25453          3182.84 -1115.2 -1226.6
GRID     25454          3192.82 -1115.2 -1226.6
GRID     25455          3202.8  -1115.2 -1226.6
GRID     25456          3212.77 -1115.2 -1226.6
GRID     25457          3222.75 -1115.2 -1226.6
GRID     25458          3232.73 -1115.2 -1226.6
GRID     25459          3242.7  -1115.2 -1226.6
GRID     25460          3252.68 -1115.2 -1226.6
GRID     25461          3262.66 -1115.2 -1226.6
GRID     25462          3272.64 -1115.2 -1226.6
GRID     25463          3282.61 -1115.2 -1226.6
GRID     25464          3292.59 -1115.2 -1226.6
GRID     25465          3302.57 -1115.2 -1226.6
GRID     25466          3312.55 -1115.2 -1226.6
GRID     25467          3322.52 -1115.2 -1226.6
GRID     25468          3332.5  -1115.2 -1226.6
GRID     25469          3342.48 -1115.2 -1226.6
GRID     25470          3352.45 -1115.2 -1226.6
GRID     25471          3362.43 -1115.2 -1226.6
GRID     25472          3372.41 -1115.2 -1226.6
GRID     25473          3382.39 -1115.2 -1226.6
GRID     25474          3392.36 -1115.2 -1226.6
GRID     25475          3402.34 -1115.2 -1226.6
GRID     25476          3412.32 -1115.2 -1226.6
GRID     25477          3422.3  -1115.2 -1226.6
GRID     25478          3432.27 -1115.2 -1226.6
GRID     25479          3442.25 -1115.2 -1226.6
GRID     25480          3452.23 -1115.2 -1226.6
GRID     25481          3462.2  -1115.2 -1226.6
GRID     25482          3472.18 -1115.2 -1226.6
GRID     25483          3482.16 -1115.2 -1226.6
GRID     25484          3492.14 -1115.2 -1226.6
GRID     25485          3502.11 -1115.2 -1226.6
GRID     25486          3512.09 -1115.2 -1226.6
GRID     25487          2853.59 -1104.47-1215.62
GRID     25488          2853.59 -1093.74-1204.89
GRID     25489          2853.59 -1083.31-1194.45
GRID     25490          2863.57 -1104.47-1215.62
GRID     25491          2863.57 -1093.74-1204.89
GRID     25492          2863.57 -1083.31-1194.45
GRID     25493          2873.55 -1104.47-1215.62
GRID     25494          2873.55 -1093.74-1204.89
GRID     25495          2873.55 -1083.31-1194.45
GRID     25496          2883.52 -1104.47-1215.62
GRID     25497          2883.52 -1093.74-1204.89
GRID     25498          2883.52 -1083.31-1194.45
GRID     25499          2893.5  -1104.47-1215.62
GRID     25500          2893.5  -1093.74-1204.89
GRID     25501          2893.5  -1083.31-1194.45
GRID     25502          2903.48 -1104.47-1215.62
GRID     25503          2903.48 -1093.74-1204.89
GRID     25504          2903.48 -1083.31-1194.45
GRID     25505          2913.45 -1104.47-1215.62
GRID     25506          2913.45 -1093.74-1204.89
GRID     25507          2913.45 -1083.31-1194.45
GRID     25508          2923.43 -1104.47-1215.62
GRID     25509          2923.43 -1093.74-1204.89
GRID     25510          2923.43 -1083.31-1194.45
GRID     25511          2933.41 -1104.47-1215.62
GRID     25512          2933.41 -1093.74-1204.89
GRID     25513          2933.41 -1083.31-1194.45
GRID     25514          2943.39 -1104.47-1215.62
GRID     25515          2943.39 -1093.74-1204.89
GRID     25516          2943.39 -1083.31-1194.45
GRID     25517          2953.36 -1104.47-1215.62
GRID     25518          2953.36 -1093.74-1204.89
GRID     25519          2953.36 -1083.31-1194.45
GRID     25520          2963.34 -1104.47-1215.62
GRID     25521          2963.34 -1093.74-1204.89
GRID     25522          2963.34 -1083.31-1194.45
GRID     25523          2973.32 -1104.47-1215.62
GRID     25524          2973.32 -1093.74-1204.89
GRID     25525          2973.32 -1083.31-1194.45
GRID     25526          2983.3  -1104.47-1215.62
GRID     25527          2983.3  -1093.74-1204.89
GRID     25528          2983.3  -1083.31-1194.45
GRID     25529          2993.27 -1104.47-1215.62
GRID     25530          2993.27 -1093.74-1204.89
GRID     25531          2993.27 -1083.31-1194.45
GRID     25532          3003.25 -1104.47-1215.62
GRID     25533          3003.25 -1093.74-1204.89
GRID     25534          3003.25 -1083.31-1194.45
GRID     25535          3013.23 -1104.47-1215.62
GRID     25536          3013.23 -1093.74-1204.89
GRID     25537          3013.23 -1083.31-1194.45
GRID     25538          3023.2  -1104.47-1215.62
GRID     25539          3023.2  -1093.74-1204.89
GRID     25540          3023.2  -1083.31-1194.45
GRID     25541          3033.18 -1104.47-1215.62
GRID     25542          3033.18 -1093.74-1204.89
GRID     25543          3033.18 -1083.31-1194.45
GRID     25544          3043.16 -1104.47-1215.62
GRID     25545          3043.16 -1093.74-1204.89
GRID     25546          3043.16 -1083.31-1194.45
GRID     25547          3053.14 -1104.47-1215.62
GRID     25548          3053.14 -1093.74-1204.89
GRID     25549          3053.14 -1083.31-1194.45
GRID     25550          3063.11 -1104.47-1215.62
GRID     25551          3063.11 -1093.74-1204.89
GRID     25552          3063.11 -1083.31-1194.45
GRID     25553          3073.09 -1104.47-1215.62
GRID     25554          3073.09 -1093.74-1204.89
GRID     25555          3073.09 -1083.31-1194.45
GRID     25556          3083.07 -1104.47-1215.62
GRID     25557          3083.07 -1093.74-1204.89
GRID     25558          3083.07 -1083.31-1194.45
GRID     25559          3093.05 -1104.47-1215.62
GRID     25560          3093.05 -1093.74-1204.89
GRID     25561          3093.05 -1083.31-1194.45
GRID     25562          3103.02 -1104.47-1215.62
GRID     25563          3103.02 -1093.74-1204.89
GRID     25564          3103.02 -1083.31-1194.45
GRID     25565          3113.   -1104.47-1215.62
GRID     25566          3113.   -1093.74-1204.89
GRID     25567          3113.   -1083.31-1194.45
GRID     25568          3122.98 -1104.47-1215.62
GRID     25569          3122.98 -1093.74-1204.89
GRID     25570          3122.98 -1083.31-1194.45
GRID     25571          3132.95 -1104.47-1215.62
GRID     25572          3132.95 -1093.74-1204.89
GRID     25573          3132.95 -1083.31-1194.45
GRID     25574          3142.93 -1104.47-1215.62
GRID     25575          3142.93 -1093.74-1204.89
GRID     25576          3142.93 -1083.31-1194.45
GRID     25577          3152.91 -1104.47-1215.62
GRID     25578          3152.91 -1093.74-1204.89
GRID     25579          3152.91 -1083.31-1194.45
GRID     25580          3162.89 -1104.47-1215.62
GRID     25581          3162.89 -1093.74-1204.89
GRID     25582          3162.89 -1083.31-1194.45
GRID     25583          3172.86 -1104.47-1215.62
GRID     25584          3172.86 -1093.74-1204.89
GRID     25585          3172.86 -1083.31-1194.45
GRID     25586          3182.84 -1104.47-1215.62
GRID     25587          3182.84 -1093.74-1204.89
GRID     25588          3182.84 -1083.31-1194.45
GRID     25589          3192.82 -1104.47-1215.62
GRID     25590          3192.82 -1093.74-1204.89
GRID     25591          3192.82 -1083.31-1194.45
GRID     25592          3202.8  -1104.47-1215.62
GRID     25593          3202.8  -1093.74-1204.89
GRID     25594          3202.8  -1083.31-1194.45
GRID     25595          3212.77 -1104.47-1215.62
GRID     25596          3212.77 -1093.74-1204.89
GRID     25597          3212.77 -1083.31-1194.45
GRID     25598          3222.75 -1104.47-1215.62
GRID     25599          3222.75 -1093.74-1204.89
GRID     25600          3222.75 -1083.31-1194.45
GRID     25601          3232.73 -1104.47-1215.62
GRID     25602          3232.73 -1093.74-1204.89
GRID     25603          3232.73 -1083.31-1194.45
GRID     25604          3242.7  -1104.47-1215.62
GRID     25605          3242.7  -1093.74-1204.89
GRID     25606          3242.7  -1083.31-1194.45
GRID     25607          3252.68 -1104.47-1215.62
GRID     25608          3252.68 -1093.74-1204.89
GRID     25609          3252.68 -1083.31-1194.45
GRID     25610          3262.66 -1104.47-1215.62
GRID     25611          3262.66 -1093.74-1204.89
GRID     25612          3262.66 -1083.31-1194.45
GRID     25613          3272.64 -1104.47-1215.62
GRID     25614          3272.64 -1093.74-1204.89
GRID     25615          3272.64 -1083.31-1194.45
GRID     25616          3282.61 -1104.47-1215.62
GRID     25617          3282.61 -1093.74-1204.89
GRID     25618          3282.61 -1083.31-1194.45
GRID     25619          3292.59 -1104.47-1215.62
GRID     25620          3292.59 -1093.74-1204.89
GRID     25621          3292.59 -1083.31-1194.45
GRID     25622          3302.57 -1104.47-1215.62
GRID     25623          3302.57 -1093.74-1204.89
GRID     25624          3302.57 -1083.31-1194.45
GRID     25625          3312.55 -1104.47-1215.62
GRID     25626          3312.55 -1093.74-1204.89
GRID     25627          3312.55 -1083.31-1194.45
GRID     25628          3322.52 -1104.47-1215.62
GRID     25629          3322.52 -1093.74-1204.89
GRID     25630          3322.52 -1083.31-1194.45
GRID     25631          3332.5  -1104.47-1215.62
GRID     25632          3332.5  -1093.74-1204.89
GRID     25633          3332.5  -1083.31-1194.45
GRID     25634          3342.48 -1104.47-1215.62
GRID     25635          3342.48 -1093.74-1204.89
GRID     25636          3342.48 -1083.31-1194.45
GRID     25637          3352.45 -1104.47-1215.62
GRID     25638          3352.45 -1093.74-1204.89
GRID     25639          3352.45 -1083.31-1194.45
GRID     25640          3362.43 -1104.47-1215.62
GRID     25641          3362.43 -1093.74-1204.89
GRID     25642          3362.43 -1083.31-1194.45
GRID     25643          3372.41 -1104.47-1215.62
GRID     25644          3372.41 -1093.74-1204.89
GRID     25645          3372.41 -1083.31-1194.45
GRID     25646          3382.39 -1104.47-1215.62
GRID     25647          3382.39 -1093.74-1204.89
GRID     25648          3382.39 -1083.31-1194.45
GRID     25649          3392.36 -1104.47-1215.62
GRID     25650          3392.36 -1093.74-1204.89
GRID     25651          3392.36 -1083.31-1194.45
GRID     25652          3402.34 -1104.47-1215.62
GRID     25653          3402.34 -1093.74-1204.89
GRID     25654          3402.34 -1083.31-1194.45
GRID     25655          3412.32 -1104.47-1215.62
GRID     25656          3412.32 -1093.74-1204.89
GRID     25657          3412.32 -1083.31-1194.45
GRID     25658          3422.3  -1104.47-1215.62
GRID     25659          3422.3  -1093.74-1204.89
GRID     25660          3422.3  -1083.31-1194.45
GRID     25661          3432.27 -1104.47-1215.62
GRID     25662          3432.27 -1093.74-1204.89
GRID     25663          3432.27 -1083.31-1194.45
GRID     25664          3442.25 -1104.47-1215.62
GRID     25665          3442.25 -1093.74-1204.89
GRID     25666          3442.25 -1083.31-1194.45
GRID     25667          3452.23 -1104.47-1215.62
GRID     25668          3452.23 -1093.74-1204.89
GRID     25669          3452.23 -1083.31-1194.45
GRID     25670          3462.2  -1104.47-1215.62
GRID     25671          3462.2  -1093.74-1204.89
GRID     25672          3462.2  -1083.31-1194.45
GRID     25673          3472.18 -1104.47-1215.62
GRID     25674          3472.18 -1093.74-1204.89
GRID     25675          3472.18 -1083.31-1194.45
GRID     25676          3482.16 -1104.47-1215.62
GRID     25677          3482.16 -1093.74-1204.89
GRID     25678          3482.16 -1083.31-1194.45
GRID     25679          3492.14 -1104.47-1215.62
GRID     25680          3492.14 -1093.74-1204.89
GRID     25681          3492.14 -1083.31-1194.45
GRID     25682          3502.11 -1104.47-1215.62
GRID     25683          3502.11 -1093.74-1204.89
GRID     25684          3502.11 -1083.31-1194.45
GRID     25685          3512.09 -1104.47-1215.62
GRID     25686          3512.09 -1093.74-1204.89
GRID     25687          3512.09 -1083.31-1194.45
GRID     25688          2853.59 -1120.99-1226.6
GRID     25689          2863.57 -1133.2 -1226.6
GRID     25690          2873.55 -1120.99-1226.6
GRID     25691          2873.55 -1133.2 -1226.6
GRID     25692          2883.52 -1120.99-1226.6
GRID     25693          2883.52 -1133.2 -1226.6
GRID     25694          2893.5  -1120.99-1226.6
GRID     25695          2893.5  -1133.2 -1226.6
GRID     25696          2903.48 -1120.99-1226.6
GRID     25697          2903.48 -1133.2 -1226.6
GRID     25698          2913.45 -1120.99-1226.6
GRID     25699          2913.45 -1133.2 -1226.6
GRID     25700          2923.43 -1120.99-1226.6
GRID     25701          2923.43 -1133.2 -1226.6
GRID     25702          2933.41 -1120.99-1226.6
GRID     25703          2933.41 -1133.2 -1226.6
GRID     25704          2943.39 -1120.99-1226.6
GRID     25705          2943.39 -1133.2 -1226.6
GRID     25706          2953.36 -1120.99-1226.6
GRID     25707          2953.36 -1133.2 -1226.6
GRID     25708          2963.34 -1120.99-1226.6
GRID     25709          2963.34 -1133.2 -1226.6
GRID     25710          2973.32 -1120.99-1226.6
GRID     25711          2973.32 -1133.2 -1226.6
GRID     25712          2983.3  -1133.2 -1226.6
GRID     25713          2993.27 -1120.99-1226.6
GRID     25714          2993.27 -1133.2 -1226.6
GRID     25715          3003.25 -1120.99-1226.6
GRID     25716          3003.25 -1133.2 -1226.6
GRID     25717          3013.23 -1120.99-1226.6
GRID     25718          3013.23 -1133.2 -1226.6
GRID     25719          3023.2  -1120.99-1226.6
GRID     25720          3023.2  -1133.2 -1226.6
GRID     25721          3033.18 -1120.99-1226.6
GRID     25722          3033.18 -1133.2 -1226.6
GRID     25723          3043.16 -1120.99-1226.6
GRID     25724          3043.16 -1133.2 -1226.6
GRID     25725          3053.14 -1120.99-1226.6
GRID     25726          3053.14 -1133.2 -1226.6
GRID     25727          3063.11 -1120.99-1226.6
GRID     25728          3063.11 -1133.2 -1226.6
GRID     25729          3073.09 -1120.99-1226.6
GRID     25730          3073.09 -1133.2 -1226.6
GRID     25731          3083.07 -1120.99-1226.6
GRID     25732          3083.07 -1133.2 -1226.6
GRID     25733          3093.05 -1120.99-1226.6
GRID     25734          3093.05 -1133.2 -1226.6
GRID     25735          3103.02 -1120.99-1226.6
GRID     25736          3103.02 -1133.2 -1226.6
GRID     25737          3113.   -1120.99-1226.6
GRID     25738          3113.   -1133.2 -1226.6
GRID     25739          3122.98 -1133.2 -1226.6
GRID     25740          3132.95 -1120.99-1226.6
GRID     25741          3132.95 -1133.2 -1226.6
GRID     25742          3142.93 -1120.99-1226.6
GRID     25743          3142.93 -1133.2 -1226.6
GRID     25744          3152.91 -1120.99-1226.6
GRID     25745          3152.91 -1133.2 -1226.6
GRID     25746          3162.89 -1120.99-1226.6
GRID     25747          3162.89 -1133.2 -1226.6
GRID     25748          3172.86 -1120.99-1226.6
GRID     25749          3172.86 -1133.2 -1226.6
GRID     25750          3182.84 -1120.99-1226.6
GRID     25751          3182.84 -1133.2 -1226.6
GRID     25752          3192.82 -1120.99-1226.6
GRID     25753          3192.82 -1133.2 -1226.6
GRID     25754          3202.8  -1120.99-1226.6
GRID     25755          3202.8  -1133.2 -1226.6
GRID     25756          3212.77 -1120.99-1226.6
GRID     25757          3212.77 -1133.2 -1226.6
GRID     25758          3222.75 -1120.99-1226.6
GRID     25759          3222.75 -1133.2 -1226.6
GRID     25760          3232.73 -1120.99-1226.6
GRID     25761          3232.73 -1133.2 -1226.6
GRID     25762          3242.7  -1120.99-1226.6
GRID     25763          3242.7  -1133.2 -1226.6
GRID     25764          3252.68 -1133.2 -1226.6
GRID     25765          3262.66 -1120.99-1226.6
GRID     25766          3262.66 -1133.2 -1226.6
GRID     25767          3272.64 -1120.99-1226.6
GRID     25768          3272.64 -1133.2 -1226.6
GRID     25769          3282.61 -1120.99-1226.6
GRID     25770          3282.61 -1133.2 -1226.6
GRID     25771          3292.59 -1120.99-1226.6
GRID     25772          3292.59 -1133.2 -1226.6
GRID     25773          3302.57 -1120.99-1226.6
GRID     25774          3302.57 -1133.2 -1226.6
GRID     25775          3312.55 -1120.99-1226.6
GRID     25776          3312.55 -1133.2 -1226.6
GRID     25777          3322.52 -1120.99-1226.6
GRID     25778          3322.52 -1133.2 -1226.6
GRID     25779          3332.5  -1120.99-1226.6
GRID     25780          3332.5  -1133.2 -1226.6
GRID     25781          3342.48 -1120.99-1226.6
GRID     25782          3342.48 -1133.2 -1226.6
GRID     25783          3352.46 -1120.99-1226.6
GRID     25784          3352.46 -1133.2 -1226.6
GRID     25785          3362.43 -1120.99-1226.6
GRID     25786          3362.43 -1133.2 -1226.6
GRID     25787          3372.41 -1120.99-1226.6
GRID     25788          3372.41 -1133.2 -1226.6
GRID     25789          3382.39 -1120.99-1226.6
GRID     25790          3382.39 -1133.2 -1226.6
GRID     25791          3392.36 -1133.2 -1226.6
GRID     25792          3402.34 -1120.99-1226.6
GRID     25793          3402.34 -1133.2 -1226.6
GRID     25794          3412.32 -1120.99-1226.6
GRID     25795          3412.32 -1133.2 -1226.6
GRID     25796          3422.3  -1120.99-1226.6
GRID     25797          3422.3  -1133.2 -1226.6
GRID     25798          3432.27 -1120.99-1226.6
GRID     25799          3432.27 -1133.2 -1226.6
GRID     25800          3442.25 -1120.99-1226.6
GRID     25801          3442.25 -1133.2 -1226.6
GRID     25802          3452.23 -1120.99-1226.6
GRID     25803          3452.23 -1133.2 -1226.6
GRID     25804          3462.2  -1120.99-1226.6
GRID     25805          3462.21 -1133.2 -1226.6
GRID     25806          3472.18 -1120.99-1226.6
GRID     25807          3472.18 -1133.2 -1226.6
GRID     25808          3482.16 -1120.99-1226.6
GRID     25809          3482.16 -1133.2 -1226.6
GRID     25810          3492.14 -1120.99-1226.6
GRID     25811          3492.14 -1133.2 -1226.6
GRID     25813          2853.59 -1054.6 -1195.48
GRID     25814          2853.59 -1054.6 -1204.88
GRID     25815          2853.59 -1054.6 -1216.58
GRID     25816          2863.57 -1054.6 -1195.48
GRID     25817          2863.57 -1054.6 -1204.88
GRID     25818          2863.57 -1054.6 -1216.58
GRID     25819          2873.55 -1054.6 -1195.48
GRID     25820          2873.55 -1054.6 -1204.88
GRID     25821          2873.55 -1054.6 -1216.58
GRID     25822          2883.52 -1054.6 -1195.48
GRID     25823          2883.52 -1054.6 -1204.88
GRID     25824          2883.52 -1054.6 -1216.58
GRID     25825          2893.5  -1054.6 -1195.48
GRID     25826          2893.5  -1054.6 -1204.88
GRID     25827          2893.5  -1054.6 -1216.58
GRID     25828          2903.48 -1054.6 -1195.48
GRID     25829          2903.48 -1054.6 -1204.88
GRID     25830          2903.48 -1054.6 -1216.58
GRID     25831          2913.45 -1054.6 -1195.48
GRID     25832          2913.45 -1054.6 -1204.88
GRID     25833          2913.45 -1054.6 -1216.58
GRID     25834          2919.43 -1054.6 -1195.48
GRID     25835          2918.59 -1054.6 -1202.4
GRID     25836          2919.43 -1054.6 -1216.58
GRID     25837          2933.41 -1054.6 -1195.48
GRID     25838          2933.41 -1054.6 -1204.88
GRID     25839          2933.41 -1054.6 -1216.58
GRID     25840          2943.39 -1054.6 -1195.48
GRID     25841          2943.39 -1054.6 -1204.88
GRID     25842          2943.39 -1054.6 -1216.58
GRID     25843          2953.36 -1054.6 -1195.48
GRID     25844          2953.36 -1054.6 -1204.88
GRID     25845          2953.36 -1054.6 -1216.58
GRID     25846          2963.34 -1054.6 -1195.48
GRID     25847          2963.34 -1054.6 -1204.88
GRID     25848          2963.34 -1054.6 -1216.58
GRID     25849          2973.32 -1054.6 -1195.48
GRID     25850          2973.32 -1054.6 -1204.88
GRID     25851          2973.32 -1054.6 -1216.58
GRID     25852          2983.3  -1054.6 -1195.48
GRID     25853          2983.3  -1054.6 -1204.88
GRID     25854          2983.3  -1054.6 -1216.58
GRID     25855          2993.27 -1054.6 -1195.48
GRID     25856          2993.27 -1054.6 -1204.88
GRID     25857          2993.27 -1054.6 -1216.58
GRID     25858          3003.25 -1054.6 -1195.48
GRID     25859          3003.25 -1054.6 -1204.88
GRID     25860          3003.25 -1054.6 -1216.58
GRID     25861          3013.23 -1054.6 -1195.48
GRID     25862          3013.23 -1054.6 -1204.88
GRID     25863          3013.23 -1054.6 -1216.58
GRID     25864          3019.2  -1054.6 -1195.48
GRID     25865          3019.59 -1054.6 -1202.4
GRID     25866          3019.2  -1054.6 -1216.58
GRID     25867          3033.18 -1054.6 -1195.48
GRID     25868          3033.18 -1054.6 -1204.88
GRID     25869          3033.18 -1054.6 -1216.58
GRID     25870          3043.16 -1054.6 -1195.48
GRID     25871          3043.16 -1054.6 -1204.88
GRID     25872          3043.16 -1054.6 -1216.58
GRID     25873          3053.14 -1054.6 -1195.48
GRID     25874          3053.14 -1054.6 -1204.88
GRID     25875          3053.14 -1054.6 -1216.58
GRID     25876          3063.11 -1054.6 -1195.48
GRID     25877          3063.11 -1054.6 -1204.88
GRID     25878          3063.11 -1054.6 -1216.58
GRID     25879          3073.09 -1054.6 -1195.48
GRID     25880          3073.09 -1054.6 -1204.88
GRID     25881          3073.09 -1054.6 -1216.58
GRID     25882          3083.07 -1054.6 -1195.48
GRID     25883          3083.07 -1054.6 -1204.88
GRID     25884          3083.07 -1054.6 -1216.58
GRID     25885          3093.05 -1054.6 -1195.48
GRID     25886          3093.05 -1054.6 -1204.88
GRID     25887          3093.05 -1054.6 -1216.58
GRID     25888          3103.02 -1054.6 -1195.48
GRID     25889          3103.02 -1054.6 -1204.88
GRID     25890          3103.02 -1054.6 -1216.58
GRID     25891          3113.   -1054.6 -1195.48
GRID     25892          3113.   -1054.6 -1204.88
GRID     25893          3113.   -1054.6 -1216.58
GRID     25894          3122.98 -1054.6 -1195.48
GRID     25895          3122.98 -1054.6 -1204.88
GRID     25896          3122.98 -1054.6 -1216.58
GRID     25897          3132.95 -1054.6 -1195.48
GRID     25898          3132.95 -1054.6 -1204.88
GRID     25899          3132.95 -1054.6 -1216.58
GRID     25900          3142.93 -1054.6 -1195.48
GRID     25901          3142.93 -1054.6 -1204.88
GRID     25902          3142.93 -1054.6 -1216.58
GRID     25903          3152.91 -1054.6 -1195.48
GRID     25904          3152.91 -1054.6 -1204.88
GRID     25905          3152.91 -1054.6 -1216.58
GRID     25906          3162.89 -1054.6 -1195.48
GRID     25907          3162.89 -1054.6 -1204.88
GRID     25908          3162.89 -1054.6 -1216.58
GRID     25909          3172.86 -1054.6 -1195.48
GRID     25910          3172.86 -1054.6 -1204.88
GRID     25911          3172.86 -1054.6 -1216.58
GRID     25912          3182.84 -1054.6 -1195.48
GRID     25913          3182.84 -1054.6 -1204.88
GRID     25914          3182.84 -1054.6 -1216.58
GRID     25915          3192.82 -1054.6 -1195.48
GRID     25916          3192.82 -1054.6 -1204.88
GRID     25917          3192.82 -1054.6 -1216.58
GRID     25918          3202.8  -1054.6 -1195.48
GRID     25919          3202.8  -1054.6 -1204.88
GRID     25920          3202.8  -1054.6 -1216.58
GRID     25921          3212.77 -1054.6 -1195.48
GRID     25922          3212.77 -1054.6 -1204.88
GRID     25923          3212.77 -1054.6 -1216.58
GRID     25924          3222.75 -1054.6 -1195.48
GRID     25925          3222.75 -1054.6 -1204.88
GRID     25926          3222.75 -1054.6 -1216.58
GRID     25927          3232.73 -1054.6 -1195.48
GRID     25928          3232.73 -1054.6 -1204.88
GRID     25929          3232.73 -1054.6 -1216.58
GRID     25930          3242.71 -1054.6 -1195.48
GRID     25931          3242.71 -1054.6 -1204.88
GRID     25932          3242.7  -1054.6 -1216.58
GRID     25933          3252.68 -1054.6 -1195.48
GRID     25934          3252.68 -1054.6 -1204.88
GRID     25935          3252.68 -1054.6 -1216.58
GRID     25936          3262.66 -1054.6 -1195.48
GRID     25937          3262.66 -1054.6 -1204.88
GRID     25938          3262.66 -1054.6 -1216.58
GRID     25939          3272.64 -1054.6 -1195.48
GRID     25940          3272.64 -1054.6 -1204.88
GRID     25941          3272.64 -1054.6 -1216.58
GRID     25942          3282.61 -1054.6 -1195.48
GRID     25943          3282.61 -1054.6 -1204.88
GRID     25944          3282.61 -1054.6 -1216.58
GRID     25945          3292.59 -1054.6 -1195.48
GRID     25946          3292.59 -1054.6 -1204.88
GRID     25947          3292.59 -1054.6 -1216.58
GRID     25948          3302.57 -1054.6 -1195.48
GRID     25949          3302.57 -1054.6 -1204.88
GRID     25950          3302.57 -1054.6 -1216.58
GRID     25951          3312.55 -1054.6 -1195.48
GRID     25952          3312.55 -1054.6 -1204.88
GRID     25953          3312.55 -1054.6 -1216.58
GRID     25954          3322.52 -1054.6 -1195.48
GRID     25955          3322.52 -1054.6 -1204.88
GRID     25956          3322.52 -1054.6 -1216.58
GRID     25957          3332.5  -1054.6 -1195.48
GRID     25958          3332.5  -1054.6 -1204.88
GRID     25959          3332.5  -1054.6 -1216.58
GRID     25960          3342.48 -1054.6 -1195.48
GRID     25961          3342.48 -1054.6 -1204.88
GRID     25962          3342.48 -1054.6 -1216.58
GRID     25963          3352.45 -1054.6 -1195.48
GRID     25964          3352.45 -1054.6 -1204.88
GRID     25965          3352.46 -1054.6 -1216.58
GRID     25966          3362.43 -1054.6 -1195.48
GRID     25967          3362.43 -1054.6 -1204.88
GRID     25968          3362.43 -1054.6 -1216.58
GRID     25969          3372.41 -1054.6 -1195.48
GRID     25970          3372.41 -1054.6 -1204.88
GRID     25971          3372.41 -1054.6 -1216.58
GRID     25972          3382.39 -1054.6 -1195.48
GRID     25973          3386.59 -1054.6 -1202.4
GRID     25974          3382.39 -1054.6 -1216.58
GRID     25975          3392.36 -1054.6 -1195.48
GRID     25976          3392.36 -1054.6 -1204.88
GRID     25977          3392.36 -1054.6 -1216.58
GRID     25978          3402.34 -1054.6 -1195.48
GRID     25979          3402.34 -1054.6 -1204.88
GRID     25980          3402.34 -1054.6 -1216.58
GRID     25981          3412.32 -1054.6 -1195.48
GRID     25982          3412.32 -1054.6 -1204.88
GRID     25983          3412.32 -1054.6 -1216.58
GRID     25984          3422.3  -1054.6 -1195.48
GRID     25985          3422.3  -1054.6 -1204.88
GRID     25986          3422.3  -1054.6 -1216.58
GRID     25987          3432.27 -1054.6 -1195.48
GRID     25988          3435.09 -1054.6 -1202.4
GRID     25989          3432.27 -1054.6 -1216.58
GRID     25990          3442.25 -1054.6 -1195.48
GRID     25991          3442.25 -1054.6 -1204.88
GRID     25992          3442.25 -1054.6 -1216.58
GRID     25993          3452.23 -1054.6 -1195.48
GRID     25994          3452.23 -1054.6 -1204.88
GRID     25995          3452.23 -1054.6 -1216.58
GRID     25996          3462.2  -1054.6 -1195.48
GRID     25997          3462.2  -1054.6 -1204.88
GRID     25998          3462.21 -1054.6 -1216.58
GRID     25999          3472.18 -1054.6 -1195.48
GRID     26000          3472.18 -1054.6 -1204.88
GRID     26001          3472.18 -1054.6 -1216.58
GRID     26002          3482.16 -1054.6 -1195.48
GRID     26003          3482.16 -1054.6 -1204.88
GRID     26004          3482.16 -1054.6 -1216.58
GRID     26005          3492.14 -1054.6 -1195.48
GRID     26006          3492.14 -1054.6 -1204.88
GRID     26007          3492.14 -1054.6 -1216.58
GRID     26008          3502.11 -1054.6 -1195.48
GRID     26009          3502.11 -1054.6 -1204.88
GRID     26010          3502.11 -1054.6 -1216.58
GRID     26011          3512.09 -1054.6 -1195.48
GRID     26012          3512.09 -1054.6 -1204.88
GRID     26013          3512.09 -1054.6 -1216.58
GRID     26014          3503.09 -1133.2 -1226.6
GRID     26015          3512.09 -1121.99-1226.6
GRID     26017          3512.09 -1245.4 -1226.6
GRID     26018          3502.11 -1245.4 -1226.6
GRID     26019          3492.14 -1245.4 -1226.6
GRID     26020          3482.16 -1245.4 -1226.6
GRID     26021          3472.18 -1245.4 -1226.6
GRID     26022          3462.2  -1245.4 -1226.6
GRID     26023          3452.23 -1245.4 -1226.6
GRID     26024          3442.25 -1245.4 -1226.6
GRID     26025          3432.27 -1245.4 -1226.6
GRID     26026          3422.3  -1245.4 -1226.6
GRID     26027          3412.32 -1245.4 -1226.6
GRID     26028          3402.34 -1245.4 -1226.6
GRID     26029          3392.36 -1245.4 -1226.6
GRID     26030          3382.39 -1245.4 -1226.6
GRID     26031          3372.41 -1245.4 -1226.6
GRID     26032          3362.43 -1245.4 -1226.6
GRID     26033          3352.45 -1245.4 -1226.6
GRID     26034          3342.48 -1245.4 -1226.6
GRID     26035          3332.5  -1245.4 -1226.6
GRID     26036          3322.52 -1245.4 -1226.6
GRID     26037          3312.55 -1245.4 -1226.6
GRID     26038          3302.57 -1245.4 -1226.6
GRID     26039          3292.59 -1245.4 -1226.6
GRID     26040          3282.61 -1245.4 -1226.6
GRID     26041          3272.64 -1245.4 -1226.6
GRID     26042          3262.66 -1245.4 -1226.6
GRID     26043          3252.68 -1245.4 -1226.6
GRID     26044          3242.7  -1245.4 -1226.6
GRID     26045          3232.73 -1245.4 -1226.6
GRID     26046          3222.75 -1245.4 -1226.6
GRID     26047          3212.77 -1245.4 -1226.6
GRID     26048          3202.8  -1245.4 -1226.6
GRID     26049          3192.82 -1245.4 -1226.6
GRID     26050          3182.84 -1245.4 -1226.6
GRID     26051          3172.86 -1245.4 -1226.6
GRID     26052          3162.89 -1245.4 -1226.6
GRID     26053          3152.91 -1245.4 -1226.6
GRID     26054          3142.93 -1245.4 -1226.6
GRID     26055          3132.95 -1245.4 -1226.6
GRID     26056          3122.98 -1245.4 -1226.6
GRID     26057          3113.   -1245.4 -1226.6
GRID     26058          3103.02 -1245.4 -1226.6
GRID     26059          3093.05 -1245.4 -1226.6
GRID     26060          3083.07 -1245.4 -1226.6
GRID     26061          3073.09 -1245.4 -1226.6
GRID     26062          3063.11 -1245.4 -1226.6
GRID     26063          3053.14 -1245.4 -1226.6
GRID     26064          3043.16 -1245.4 -1226.6
GRID     26065          3033.18 -1245.4 -1226.6
GRID     26066          3023.2  -1245.4 -1226.6
GRID     26067          3013.23 -1245.4 -1226.6
GRID     26068          3003.25 -1245.4 -1226.6
GRID     26069          2993.27 -1245.4 -1226.6
GRID     26070          2983.3  -1245.4 -1226.6
GRID     26071          2973.32 -1245.4 -1226.6
GRID     26072          2963.34 -1245.4 -1226.6
GRID     26073          2953.36 -1245.4 -1226.6
GRID     26074          2943.39 -1245.4 -1226.6
GRID     26075          2933.41 -1245.4 -1226.6
GRID     26076          2923.43 -1245.4 -1226.6
GRID     26077          2913.45 -1245.4 -1226.6
GRID     26078          2903.48 -1245.4 -1226.6
GRID     26079          2893.5  -1245.4 -1226.6
GRID     26080          2883.52 -1245.4 -1226.6
GRID     26081          2873.55 -1245.4 -1226.6
GRID     26082          2863.57 -1245.4 -1226.6
GRID     26083          2853.59 -1245.4 -1226.6
GRID     26084          3512.09 -1252.34-1226.6
GRID     26085          3512.09 -1262.34-1226.6
GRID     26086          3502.11 -1262.34-1226.6
GRID     26087          3492.14 -1252.34-1226.6
GRID     26088          3492.14 -1262.34-1226.6
GRID     26089          3482.16 -1252.34-1226.6
GRID     26090          3482.16 -1262.34-1226.6
GRID     26091          3472.18 -1252.34-1226.6
GRID     26092          3472.18 -1262.34-1226.6
GRID     26093          3462.2  -1252.34-1226.6
GRID     26094          3462.2  -1262.34-1226.6
GRID     26095          3452.23 -1252.34-1226.6
GRID     26096          3452.23 -1262.34-1226.6
GRID     26097          3442.25 -1252.34-1226.6
GRID     26098          3442.25 -1262.34-1226.6
GRID     26099          3432.27 -1252.34-1226.6
GRID     26100          3432.27 -1262.34-1226.6
GRID     26101          3422.3  -1252.34-1226.6
GRID     26102          3422.3  -1262.34-1226.6
GRID     26103          3412.32 -1252.34-1226.6
GRID     26104          3412.32 -1262.34-1226.6
GRID     26105          3402.34 -1252.34-1226.6
GRID     26106          3402.34 -1262.34-1226.6
GRID     26107          3392.36 -1262.34-1226.6
GRID     26108          3382.39 -1252.34-1226.6
GRID     26109          3382.39 -1262.34-1226.6
GRID     26110          3372.41 -1252.34-1226.6
GRID     26111          3372.41 -1262.34-1226.6
GRID     26112          3362.43 -1252.34-1226.6
GRID     26113          3362.43 -1262.34-1226.6
GRID     26114          3352.45 -1252.34-1226.6
GRID     26115          3352.45 -1262.34-1226.6
GRID     26116          3342.48 -1252.34-1226.6
GRID     26117          3342.48 -1262.34-1226.6
GRID     26118          3332.5  -1252.34-1226.6
GRID     26119          3332.5  -1262.34-1226.6
GRID     26120          3322.52 -1252.34-1226.6
GRID     26121          3322.52 -1262.34-1226.6
GRID     26122          3312.55 -1252.34-1226.6
GRID     26123          3312.55 -1262.34-1226.6
GRID     26124          3302.57 -1252.34-1226.6
GRID     26125          3302.57 -1262.34-1226.6
GRID     26126          3292.59 -1252.34-1226.6
GRID     26127          3292.59 -1262.34-1226.6
GRID     26128          3282.61 -1252.34-1226.6
GRID     26129          3282.61 -1262.34-1226.6
GRID     26130          3272.64 -1252.34-1226.6
GRID     26131          3262.66 -1252.34-1226.6
GRID     26132          3262.66 -1262.34-1226.6
GRID     26133          3252.68 -1262.34-1226.6
GRID     26134          3242.7  -1252.34-1226.6
GRID     26135          3242.7  -1262.34-1226.6
GRID     26136          3232.73 -1252.34-1226.6
GRID     26137          3232.73 -1262.34-1226.6
GRID     26138          3222.75 -1252.34-1226.6
GRID     26139          3222.75 -1262.34-1226.6
GRID     26140          3212.77 -1252.34-1226.6
GRID     26141          3212.77 -1262.34-1226.6
GRID     26142          3202.8  -1252.34-1226.6
GRID     26143          3192.82 -1252.34-1226.6
GRID     26144          3192.82 -1262.34-1226.6
GRID     26145          3182.84 -1252.34-1226.6
GRID     26146          3182.84 -1262.34-1226.6
GRID     26147          3172.86 -1252.34-1226.6
GRID     26148          3162.89 -1252.34-1226.6
GRID     26149          3162.89 -1262.34-1226.6
GRID     26150          3152.91 -1252.34-1226.6
GRID     26151          3152.91 -1262.34-1226.6
GRID     26152          3142.93 -1252.34-1226.6
GRID     26153          3142.93 -1262.34-1226.6
GRID     26154          3132.95 -1252.34-1226.6
GRID     26155          3132.95 -1262.34-1226.6
GRID     26156          3122.98 -1252.34-1226.6
GRID     26157          3122.98 -1262.34-1226.6
GRID     26158          3113.   -1252.34-1226.6
GRID     26159          3113.   -1262.34-1226.6
GRID     26160          3103.02 -1252.34-1226.6
GRID     26161          3103.02 -1262.34-1226.6
GRID     26162          3093.05 -1252.34-1226.6
GRID     26163          3093.05 -1262.34-1226.6
GRID     26164          3083.07 -1262.34-1226.6
GRID     26165          3073.09 -1252.34-1226.6
GRID     26166          3073.09 -1262.34-1226.6
GRID     26167          3063.11 -1252.34-1226.6
GRID     26168          3063.11 -1262.34-1226.6
GRID     26169          3053.14 -1252.34-1226.6
GRID     26170          3053.14 -1262.34-1226.6
GRID     26171          3043.16 -1252.34-1226.6
GRID     26172          3033.18 -1252.34-1226.6
GRID     26173          3033.18 -1262.34-1226.6
GRID     26174          3023.2  -1252.34-1226.6
GRID     26175          3023.2  -1262.34-1226.6
GRID     26176          3013.23 -1252.34-1226.6
GRID     26177          3013.23 -1262.34-1226.6
GRID     26178          3003.25 -1252.34-1226.6
GRID     26179          3003.25 -1262.34-1226.6
GRID     26180          2993.27 -1252.34-1226.6
GRID     26181          2993.27 -1262.34-1226.6
GRID     26182          2983.3  -1262.34-1226.6
GRID     26183          2973.32 -1252.34-1226.6
GRID     26184          2973.32 -1262.34-1226.6
GRID     26185          2963.34 -1252.34-1226.6
GRID     26186          2963.34 -1262.34-1226.6
GRID     26187          2953.36 -1252.34-1226.6
GRID     26188          2953.36 -1262.34-1226.6
GRID     26189          2943.39 -1252.34-1226.6
GRID     26190          2943.39 -1262.34-1226.6
GRID     26191          2933.41 -1252.34-1226.6
GRID     26192          2933.41 -1262.34-1226.6
GRID     26193          2923.43 -1252.34-1226.6
GRID     26194          2923.43 -1262.34-1226.6
GRID     26195          2913.45 -1252.34-1226.6
GRID     26196          2913.45 -1262.34-1226.6
GRID     26197          2903.48 -1252.34-1226.6
GRID     26198          2903.48 -1262.34-1226.6
GRID     26199          2893.5  -1252.34-1226.6
GRID     26200          2893.5  -1262.34-1226.6
GRID     26201          2883.52 -1252.34-1226.6
GRID     26202          2883.52 -1262.34-1226.6
GRID     26203          2873.55 -1252.34-1226.6
GRID     26204          2873.55 -1262.34-1226.6
GRID     26205          2863.57 -1262.34-1226.6
GRID     26206          2853.59 -1252.34-1226.6
GRID     26207          2853.59 -1262.34-1226.6
GRID     26208          3512.09 -1245.4 -1183.8
GRID     26209          3502.11 -1245.4 -1183.8
GRID     26210          3492.14 -1245.4 -1183.8
GRID     26211          3472.18 -1245.4 -1183.8
GRID     26212          3462.2  -1245.4 -1183.8
GRID     26213          3452.23 -1245.4 -1183.8
GRID     26214          3442.25 -1245.4 -1183.8
GRID     26215          3432.27 -1245.4 -1183.8
GRID     26216          3422.3  -1245.4 -1183.8
GRID     26217          3412.32 -1245.4 -1183.8
GRID     26218          3382.39 -1245.4 -1183.8
GRID     26219          3372.41 -1245.4 -1183.8
GRID     26220          3362.43 -1245.4 -1183.8
GRID     26221          3352.45 -1245.4 -1183.8
GRID     26222          3342.48 -1245.4 -1183.8
GRID     26223          3332.5  -1245.4 -1183.8
GRID     26224          3322.52 -1245.4 -1183.8
GRID     26225          3312.55 -1245.4 -1183.8
GRID     26226          3302.57 -1245.4 -1183.8
GRID     26227          3292.59 -1245.4 -1183.8
GRID     26228          3282.61 -1245.4 -1183.8
GRID     26229          3262.66 -1245.4 -1183.8
GRID     26230          3252.68 -1245.4 -1183.8
GRID     26231          3242.7  -1245.4 -1183.8
GRID     26232          3232.73 -1245.4 -1183.8
GRID     26233          3222.75 -1245.4 -1183.8
GRID     26234          3212.77 -1245.4 -1183.8
GRID     26235          3202.8  -1245.4 -1183.8
GRID     26236          3192.82 -1245.4 -1183.8
GRID     26237          3182.84 -1245.4 -1183.8
GRID     26238          3172.86 -1245.4 -1183.8
GRID     26239          3162.89 -1245.4 -1183.8
GRID     26240          3152.91 -1245.4 -1183.8
GRID     26241          3142.93 -1245.4 -1183.8
GRID     26242          3132.95 -1245.4 -1183.8
GRID     26243          3113.   -1245.4 -1183.8
GRID     26244          3103.02 -1245.4 -1183.8
GRID     26245          3093.05 -1245.4 -1183.8
GRID     26246          3083.07 -1245.4 -1183.8
GRID     26247          3073.09 -1245.4 -1183.8
GRID     26248          3063.11 -1245.4 -1183.8
GRID     26249          3053.14 -1245.4 -1183.8
GRID     26250          3043.16 -1245.4 -1183.8
GRID     26251          3033.18 -1245.4 -1183.8
GRID     26252          3013.23 -1245.4 -1183.8
GRID     26253          3003.25 -1245.4 -1183.8
GRID     26254          2973.32 -1245.4 -1183.8
GRID     26255          2963.34 -1245.4 -1183.8
GRID     26256          2953.36 -1245.4 -1183.8
GRID     26257          2943.39 -1245.4 -1183.8
GRID     26258          2933.41 -1245.4 -1183.8
GRID     26259          2923.43 -1245.4 -1183.8
GRID     26260          2913.45 -1245.4 -1183.8
GRID     26261          2903.48 -1245.4 -1183.8
GRID     26262          2893.5  -1245.4 -1183.8
GRID     26263          2883.52 -1245.4 -1183.8
GRID     26264          2873.55 -1245.4 -1183.8
GRID     26265          2863.57 -1245.4 -1183.8
GRID     26266          3512.09 -1245.4 -1195.6
GRID     26267          3512.09 -1245.4 -1205.
GRID     26268          3512.09 -1245.4 -1216.7
GRID     26269          3502.11 -1245.4 -1195.6
GRID     26270          3502.11 -1245.4 -1205.
GRID     26271          3502.11 -1245.4 -1216.7
GRID     26272          3492.14 -1245.4 -1195.6
GRID     26273          3492.14 -1245.4 -1205.
GRID     26274          3492.14 -1245.4 -1216.7
GRID     26275          3482.16 -1245.4 -1195.6
GRID     26276          3482.16 -1245.4 -1205.
GRID     26277          3482.16 -1245.4 -1216.7
GRID     26278          3472.18 -1245.4 -1195.6
GRID     26279          3472.18 -1245.4 -1205.
GRID     26280          3472.18 -1245.4 -1216.7
GRID     26281          3462.2  -1245.4 -1195.6
GRID     26282          3462.2  -1245.4 -1205.
GRID     26283          3462.2  -1245.4 -1216.7
GRID     26284          3452.23 -1245.4 -1195.6
GRID     26285          3452.23 -1245.4 -1205.
GRID     26286          3452.23 -1245.4 -1216.7
GRID     26287          3442.25 -1245.4 -1195.6
GRID     26288          3442.25 -1245.4 -1205.
GRID     26289          3442.25 -1245.4 -1216.7
GRID     26290          3433.27 -1245.4 -1195.6
GRID     26291          3435.09 -1245.4 -1202.16
GRID     26292          3432.27 -1245.4 -1216.7
GRID     26293          3422.3  -1245.4 -1195.6
GRID     26294          3422.3  -1245.4 -1205.
GRID     26295          3422.3  -1245.4 -1216.7
GRID     26296          3412.32 -1245.4 -1195.6
GRID     26297          3412.32 -1245.4 -1205.
GRID     26298          3412.32 -1245.4 -1216.7
GRID     26299          3402.34 -1245.4 -1195.6
GRID     26300          3402.34 -1245.4 -1205.
GRID     26301          3402.34 -1245.4 -1216.7
GRID     26302          3392.36 -1245.4 -1195.6
GRID     26303          3392.36 -1245.4 -1205.
GRID     26304          3392.36 -1245.4 -1216.7
GRID     26305          3386.39 -1245.4 -1195.6
GRID     26306          3386.59 -1245.4 -1202.16
GRID     26307          3382.39 -1245.4 -1216.7
GRID     26308          3372.41 -1245.4 -1195.6
GRID     26309          3372.41 -1245.4 -1205.
GRID     26310          3372.41 -1245.4 -1216.7
GRID     26311          3362.43 -1245.4 -1195.6
GRID     26312          3362.43 -1245.4 -1216.7
GRID     26313          3352.45 -1245.4 -1195.6
GRID     26314          3352.45 -1245.4 -1205.
GRID     26315          3352.45 -1245.4 -1216.7
GRID     26316          3342.48 -1245.4 -1195.6
GRID     26317          3342.48 -1245.4 -1205.
GRID     26318          3342.48 -1245.4 -1216.7
GRID     26319          3332.5  -1245.4 -1195.6
GRID     26320          3332.5  -1245.4 -1216.7
GRID     26321          3322.52 -1245.4 -1195.6
GRID     26322          3322.52 -1245.4 -1205.
GRID     26323          3322.52 -1245.4 -1216.7
GRID     26324          3312.55 -1245.4 -1195.6
GRID     26325          3312.55 -1245.4 -1205.
GRID     26326          3312.55 -1245.4 -1216.7
GRID     26327          3302.57 -1245.4 -1195.6
GRID     26328          3302.57 -1245.4 -1205.
GRID     26329          3302.57 -1245.4 -1216.7
GRID     26330          3292.59 -1245.4 -1195.6
GRID     26331          3292.59 -1245.4 -1205.
GRID     26332          3292.59 -1245.4 -1216.7
GRID     26333          3282.61 -1245.4 -1195.6
GRID     26334          3282.61 -1245.4 -1205.
GRID     26335          3282.61 -1245.4 -1216.7
GRID     26336          3272.64 -1245.4 -1195.6
GRID     26337          3272.64 -1245.4 -1205.
GRID     26338          3272.64 -1245.4 -1216.7
GRID     26339          3262.66 -1245.4 -1195.6
GRID     26340          3262.66 -1245.4 -1205.
GRID     26341          3262.66 -1245.4 -1216.7
GRID     26342          3252.68 -1245.4 -1195.6
GRID     26343          3252.68 -1245.4 -1205.
GRID     26344          3252.68 -1245.4 -1216.7
GRID     26345          3242.7  -1245.4 -1195.6
GRID     26346          3242.7  -1245.4 -1205.
GRID     26347          3242.7  -1245.4 -1216.7
GRID     26348          3232.73 -1245.4 -1195.6
GRID     26349          3232.73 -1245.4 -1205.
GRID     26350          3232.73 -1245.4 -1216.7
GRID     26351          3222.75 -1245.4 -1195.6
GRID     26352          3222.75 -1245.4 -1205.
GRID     26353          3222.75 -1245.4 -1216.7
GRID     26354          3212.77 -1245.4 -1195.6
GRID     26355          3212.77 -1245.4 -1205.
GRID     26356          3212.77 -1245.4 -1216.7
GRID     26357          3202.8  -1245.4 -1195.6
GRID     26358          3202.8  -1245.4 -1205.
GRID     26359          3202.8  -1245.4 -1216.7
GRID     26360          3192.82 -1245.4 -1195.6
GRID     26361          3192.82 -1245.4 -1205.
GRID     26362          3192.82 -1245.4 -1216.7
GRID     26363          3182.84 -1245.4 -1195.6
GRID     26364          3182.84 -1245.4 -1205.
GRID     26365          3182.84 -1245.4 -1216.7
GRID     26366          3172.86 -1245.4 -1195.6
GRID     26367          3172.86 -1245.4 -1205.
GRID     26368          3172.86 -1245.4 -1216.7
GRID     26369          3162.89 -1245.4 -1195.6
GRID     26370          3162.89 -1245.4 -1205.
GRID     26371          3162.89 -1245.4 -1216.7
GRID     26372          3152.91 -1245.4 -1195.6
GRID     26373          3152.91 -1245.4 -1205.
GRID     26374          3152.91 -1245.4 -1216.7
GRID     26375          3142.93 -1245.4 -1195.6
GRID     26376          3142.93 -1245.4 -1205.
GRID     26377          3142.93 -1245.4 -1216.7
GRID     26378          3132.95 -1245.4 -1195.6
GRID     26379          3132.95 -1245.4 -1205.
GRID     26380          3132.95 -1245.4 -1216.7
GRID     26381          3122.98 -1245.4 -1195.6
GRID     26382          3122.98 -1245.4 -1205.
GRID     26383          3122.98 -1245.4 -1216.7
GRID     26384          3113.   -1245.4 -1195.6
GRID     26385          3113.   -1245.4 -1205.
GRID     26386          3113.   -1245.4 -1216.7
GRID     26387          3103.02 -1245.4 -1195.6
GRID     26388          3103.02 -1245.4 -1205.
GRID     26389          3103.02 -1245.4 -1216.7
GRID     26390          3093.05 -1245.4 -1195.6
GRID     26391          3093.05 -1245.4 -1205.
GRID     26392          3093.05 -1245.4 -1216.7
GRID     26393          3083.07 -1245.4 -1195.6
GRID     26394          3083.07 -1245.4 -1205.
GRID     26395          3083.07 -1245.4 -1216.7
GRID     26396          3073.09 -1245.4 -1195.6
GRID     26397          3073.09 -1245.4 -1205.
GRID     26398          3073.09 -1245.4 -1216.7
GRID     26399          3063.11 -1245.4 -1195.6
GRID     26400          3063.11 -1245.4 -1205.
GRID     26401          3063.11 -1245.4 -1216.7
GRID     26402          3053.14 -1245.4 -1195.6
GRID     26403          3053.14 -1245.4 -1205.
GRID     26404          3053.14 -1245.4 -1216.7
GRID     26405          3043.16 -1245.4 -1195.6
GRID     26406          3043.16 -1245.4 -1205.
GRID     26407          3043.16 -1245.4 -1216.7
GRID     26408          3033.18 -1245.4 -1195.6
GRID     26409          3033.18 -1245.4 -1205.
GRID     26410          3033.18 -1245.4 -1216.7
GRID     26411          3019.59 -1245.4 -1202.16
GRID     26412          3023.2  -1245.4 -1216.7
GRID     26413          3013.23 -1245.4 -1195.6
GRID     26414          3013.23 -1245.4 -1205.
GRID     26415          3013.23 -1245.4 -1216.7
GRID     26416          3003.25 -1245.4 -1195.6
GRID     26417          3003.25 -1245.4 -1205.
GRID     26418          3003.25 -1245.4 -1216.7
GRID     26419          2993.27 -1245.4 -1195.6
GRID     26420          2993.27 -1245.4 -1205.
GRID     26421          2993.27 -1245.4 -1216.7
GRID     26422          2983.3  -1245.4 -1195.6
GRID     26423          2983.3  -1245.4 -1205.
GRID     26424          2983.3  -1245.4 -1216.7
GRID     26425          2973.32 -1245.4 -1195.6
GRID     26426          2973.32 -1245.4 -1205.
GRID     26427          2973.32 -1245.4 -1216.7
GRID     26428          2963.34 -1245.4 -1195.6
GRID     26429          2963.34 -1245.4 -1205.
GRID     26430          2963.34 -1245.4 -1216.7
GRID     26431          2953.36 -1245.4 -1195.6
GRID     26432          2953.36 -1245.4 -1205.
GRID     26433          2953.36 -1245.4 -1216.7
GRID     26434          2943.39 -1245.4 -1195.6
GRID     26435          2943.39 -1245.4 -1205.
GRID     26436          2943.39 -1245.4 -1216.7
GRID     26437          2933.41 -1245.4 -1195.6
GRID     26438          2933.41 -1245.4 -1205.
GRID     26439          2933.41 -1245.4 -1216.7
GRID     26440          2923.43 -1245.4 -1195.6
GRID     26441          2923.43 -1245.4 -1205.
GRID     26442          2923.43 -1245.4 -1216.7
GRID     26443          2917.45 -1245.4 -1195.6
GRID     26444          2918.59 -1245.4 -1202.16
GRID     26445          2917.45 -1245.4 -1216.7
GRID     26446          2903.48 -1245.4 -1195.6
GRID     26447          2903.48 -1245.4 -1205.
GRID     26448          2903.48 -1245.4 -1216.7
GRID     26449          2893.5  -1245.4 -1195.6
GRID     26450          2893.5  -1245.4 -1205.
GRID     26451          2893.5  -1245.4 -1216.7
GRID     26452          2883.52 -1245.4 -1195.6
GRID     26453          2883.52 -1245.4 -1205.
GRID     26454          2883.52 -1245.4 -1216.7
GRID     26455          2873.55 -1245.4 -1195.6
GRID     26456          2873.55 -1245.4 -1205.
GRID     26457          2873.55 -1245.4 -1216.7
GRID     26458          2863.57 -1245.4 -1195.6
GRID     26459          2863.57 -1245.4 -1205.
GRID     26460          2863.57 -1245.4 -1216.7
GRID     26461          2853.59 -1245.4 -1195.6
GRID     26462          2853.59 -1245.4 -1205.
GRID     26463          2853.59 -1245.4 -1216.7
GRID     26464          3512.09 -1227.76-1183.8
GRID     26465          3502.11 -1227.76-1183.8
GRID     26466          3492.14 -1227.76-1183.8
GRID     26467          3482.16 -1227.76-1183.8
GRID     26468          3472.18 -1227.76-1183.8
GRID     26469          3462.2  -1227.76-1183.8
GRID     26470          3452.23 -1227.76-1183.8
GRID     26471          3442.25 -1227.76-1183.8
GRID     26472          3435.09 -1227.76-1182.6
GRID     26473          3422.3  -1227.76-1183.8
GRID     26474          3412.32 -1227.76-1183.8
GRID     26475          3402.34 -1227.76-1183.8
GRID     26476          3392.36 -1227.76-1183.8
GRID     26477          3389.59 -1227.76-1183.8
GRID     26478          3372.41 -1227.76-1183.8
GRID     26479          3362.43 -1227.76-1183.8
GRID     26480          3352.45 -1227.76-1183.8
GRID     26481          3342.48 -1227.76-1183.8
GRID     26482          3332.5  -1227.76-1183.8
GRID     26483          3322.52 -1227.76-1183.8
GRID     26484          3312.55 -1227.76-1183.8
GRID     26485          3302.57 -1227.76-1183.8
GRID     26486          3292.59 -1227.76-1183.8
GRID     26487          3282.61 -1227.76-1183.8
GRID     26488          3272.64 -1227.76-1183.8
GRID     26489          3262.66 -1227.76-1183.8
GRID     26490          3252.68 -1227.76-1183.8
GRID     26491          3242.7  -1227.76-1183.8
GRID     26492          3232.73 -1227.76-1183.8
GRID     26493          3222.75 -1227.76-1183.8
GRID     26494          3212.77 -1227.76-1183.8
GRID     26495          3202.8  -1227.76-1183.8
GRID     26496          3192.82 -1227.76-1183.8
GRID     26497          3187.81 -1227.76-1183.8
GRID     26498          3172.86 -1227.76-1183.8
GRID     26499          3162.89 -1227.76-1183.8
GRID     26500          3152.91 -1227.76-1183.8
GRID     26501          3142.93 -1227.76-1183.8
GRID     26502          3132.95 -1227.76-1183.8
GRID     26503          3122.98 -1227.76-1183.8
GRID     26504          3113.   -1227.76-1183.8
GRID     26505          3103.02 -1227.76-1183.8
GRID     26506          3093.05 -1227.76-1183.8
GRID     26507          3083.07 -1227.76-1183.8
GRID     26508          3073.09 -1227.76-1183.8
GRID     26509          3063.11 -1227.76-1183.8
GRID     26510          3053.14 -1227.76-1183.8
GRID     26511          3043.16 -1227.76-1183.8
GRID     26512          3033.18 -1227.76-1183.8
GRID     26513          3016.59 -1227.76-1183.8
GRID     26514          3013.23 -1227.76-1183.8
GRID     26515          3003.25 -1227.76-1183.8
GRID     26516          2993.27 -1227.76-1183.8
GRID     26517          2983.3  -1227.76-1183.8
GRID     26518          2973.32 -1227.76-1183.8
GRID     26519          2963.34 -1227.76-1183.8
GRID     26520          2953.36 -1227.76-1183.8
GRID     26521          2943.39 -1227.76-1183.8
GRID     26522          2933.41 -1227.76-1183.8
GRID     26523          2923.43 -1227.76-1183.8
GRID     26524          2921.59 -1227.76-1183.8
GRID     26525          2903.48 -1227.76-1183.8
GRID     26526          2893.5  -1227.76-1183.8
GRID     26527          2883.52 -1227.76-1183.8
GRID     26528          2873.55 -1227.76-1183.8
GRID     26529          2863.57 -1227.76-1183.8
GRID     26530          2853.59 -1227.76-1183.8
GRID     26531          3512.09 -1236.1 -1183.8
GRID     26532          3502.11 -1236.1 -1183.8
GRID     26533          3492.14 -1236.1 -1183.8
GRID     26534          3482.16 -1236.1 -1183.8
GRID     26535          3472.18 -1236.1 -1183.8
GRID     26536          3462.2  -1236.1 -1183.8
GRID     26537          3452.23 -1236.1 -1183.8
GRID     26538          3442.25 -1236.1 -1183.8
GRID     26539          3432.27 -1236.1 -1183.8
GRID     26540          3422.3  -1236.1 -1183.8
GRID     26541          3412.32 -1236.1 -1183.8
GRID     26542          3402.34 -1236.1 -1183.8
GRID     26543          3392.36 -1236.1 -1183.8
GRID     26544          3382.39 -1236.1 -1183.8
GRID     26545          3372.41 -1236.1 -1183.8
GRID     26546          3362.43 -1236.1 -1183.8
GRID     26547          3352.45 -1236.1 -1183.8
GRID     26548          3342.48 -1236.1 -1183.8
GRID     26549          3332.5  -1236.1 -1183.8
GRID     26550          3322.52 -1236.1 -1183.8
GRID     26551          3312.55 -1236.1 -1183.8
GRID     26552          3302.57 -1236.1 -1183.8
GRID     26553          3292.59 -1236.1 -1183.8
GRID     26554          3282.61 -1236.1 -1183.8
GRID     26555          3272.64 -1236.1 -1183.8
GRID     26556          3262.66 -1236.1 -1183.8
GRID     26557          3252.68 -1236.1 -1183.8
GRID     26558          3242.7  -1236.1 -1183.8
GRID     26559          3232.73 -1236.1 -1183.8
GRID     26560          3222.75 -1236.1 -1183.8
GRID     26561          3212.77 -1236.1 -1183.8
GRID     26562          3202.8  -1236.1 -1183.8
GRID     26563          3192.82 -1236.1 -1183.8
GRID     26564          3182.84 -1236.1 -1183.8
GRID     26565          3172.86 -1236.1 -1183.8
GRID     26566          3162.89 -1236.1 -1183.8
GRID     26567          3152.91 -1236.1 -1183.8
GRID     26568          3142.93 -1236.1 -1183.8
GRID     26569          3132.95 -1236.1 -1183.8
GRID     26570          3122.98 -1236.1 -1183.8
GRID     26571          3113.   -1236.1 -1183.8
GRID     26572          3103.02 -1236.1 -1183.8
GRID     26573          3093.05 -1236.1 -1183.8
GRID     26574          3083.07 -1236.1 -1183.8
GRID     26575          3073.09 -1236.1 -1183.8
GRID     26576          3063.11 -1236.1 -1183.8
GRID     26577          3053.14 -1236.1 -1183.8
GRID     26578          3043.16 -1236.1 -1183.8
GRID     26579          3033.18 -1236.1 -1183.8
GRID     26580          3023.2  -1236.1 -1183.8
GRID     26581          3013.23 -1236.1 -1183.8
GRID     26582          3003.25 -1236.1 -1183.8
GRID     26583          2993.27 -1236.1 -1183.8
GRID     26584          2983.3  -1236.1 -1183.8
GRID     26585          2973.32 -1236.1 -1183.8
GRID     26586          2963.34 -1236.1 -1183.8
GRID     26587          2953.36 -1236.1 -1183.8
GRID     26588          2943.39 -1236.1 -1183.8
GRID     26589          2933.41 -1236.1 -1183.8
GRID     26590          2923.43 -1236.1 -1183.8
GRID     26591          2913.45 -1236.1 -1183.8
GRID     26592          2903.48 -1236.1 -1183.8
GRID     26593          2893.5  -1236.1 -1183.8
GRID     26594          2883.52 -1236.1 -1183.8
GRID     26595          2873.55 -1236.1 -1183.8
GRID     26596          2863.57 -1236.1 -1183.8
GRID     26597          2853.59 -1236.1 -1183.8
GRID     26598          3512.09 -1185.01-1226.6
GRID     26599          3502.11 -1185.01-1226.6
GRID     26600          3492.14 -1185.01-1226.6
GRID     26601          3482.16 -1185.01-1226.6
GRID     26602          3472.18 -1185.01-1226.6
GRID     26603          3462.2  -1185.01-1226.6
GRID     26604          3452.23 -1185.01-1226.6
GRID     26605          3442.25 -1185.01-1226.6
GRID     26606          3432.27 -1185.01-1226.6
GRID     26607          3422.3  -1185.01-1226.6
GRID     26608          3412.32 -1185.01-1226.6
GRID     26609          3402.34 -1185.01-1226.6
GRID     26610          3392.36 -1185.01-1226.6
GRID     26611          3382.39 -1185.01-1226.6
GRID     26612          3372.41 -1185.01-1226.6
GRID     26613          3362.43 -1185.01-1226.6
GRID     26614          3352.45 -1185.01-1226.6
GRID     26615          3342.48 -1185.01-1226.6
GRID     26616          3332.5  -1185.01-1226.6
GRID     26617          3322.52 -1185.01-1226.6
GRID     26618          3312.55 -1185.01-1226.6
GRID     26619          3302.57 -1185.01-1226.6
GRID     26620          3292.59 -1185.01-1226.6
GRID     26621          3282.61 -1185.01-1226.6
GRID     26622          3272.64 -1185.01-1226.6
GRID     26623          3262.66 -1185.01-1226.6
GRID     26624          3252.68 -1185.01-1226.6
GRID     26625          3242.7  -1185.01-1226.6
GRID     26626          3232.73 -1185.01-1226.6
GRID     26627          3222.75 -1185.01-1226.6
GRID     26628          3212.77 -1185.01-1226.6
GRID     26629          3202.8  -1185.01-1226.6
GRID     26630          3192.82 -1185.01-1226.6
GRID     26631          3182.84 -1185.01-1226.6
GRID     26632          3172.86 -1185.01-1226.6
GRID     26633          3162.89 -1185.01-1226.6
GRID     26634          3152.91 -1185.01-1226.6
GRID     26635          3142.93 -1185.01-1226.6
GRID     26636          3132.95 -1185.01-1226.6
GRID     26637          3122.98 -1185.01-1226.6
GRID     26638          3113.   -1185.01-1226.6
GRID     26639          3103.02 -1185.01-1226.6
GRID     26640          3093.05 -1185.01-1226.6
GRID     26641          3083.07 -1185.01-1226.6
GRID     26642          3073.09 -1185.01-1226.6
GRID     26643          3063.11 -1185.01-1226.6
GRID     26644          3053.14 -1185.01-1226.6
GRID     26645          3043.16 -1185.01-1226.6
GRID     26646          3033.18 -1185.01-1226.6
GRID     26647          3023.2  -1185.01-1226.6
GRID     26648          3013.23 -1185.01-1226.6
GRID     26649          3003.25 -1185.01-1226.6
GRID     26650          2993.27 -1185.01-1226.6
GRID     26651          2983.3  -1185.01-1226.6
GRID     26652          2973.32 -1185.01-1226.6
GRID     26653          2963.34 -1185.01-1226.6
GRID     26654          2953.36 -1185.01-1226.6
GRID     26655          2943.39 -1185.01-1226.6
GRID     26656          2933.41 -1185.01-1226.6
GRID     26657          2923.43 -1185.01-1226.6
GRID     26658          2913.45 -1185.01-1226.6
GRID     26659          2903.48 -1185.01-1226.6
GRID     26660          2893.5  -1185.01-1226.6
GRID     26661          2883.52 -1185.01-1226.6
GRID     26662          2873.55 -1185.01-1226.6
GRID     26663          2863.57 -1185.01-1226.6
GRID     26664          2853.59 -1185.01-1226.6
GRID     26665          3512.09 -1194.76-1216.39
GRID     26666          3512.09 -1205.49-1205.66
GRID     26667          3512.09 -1215.93-1195.23
GRID     26668          3502.11 -1194.76-1216.39
GRID     26669          3502.11 -1205.49-1205.66
GRID     26670          3502.11 -1215.93-1195.23
GRID     26671          3492.14 -1194.76-1216.39
GRID     26672          3492.14 -1205.49-1205.66
GRID     26673          3492.14 -1215.93-1195.23
GRID     26674          3482.16 -1194.76-1216.39
GRID     26675          3482.16 -1205.49-1205.66
GRID     26676          3482.16 -1215.93-1195.23
GRID     26677          3472.18 -1194.76-1216.39
GRID     26678          3472.18 -1205.49-1205.66
GRID     26679          3472.18 -1215.93-1195.23
GRID     26680          3462.2  -1194.76-1216.39
GRID     26681          3462.2  -1205.49-1205.66
GRID     26682          3462.2  -1215.93-1195.23
GRID     26683          3452.23 -1194.76-1216.39
GRID     26684          3452.23 -1205.49-1205.66
GRID     26685          3452.23 -1215.93-1195.23
GRID     26686          3442.25 -1194.76-1216.39
GRID     26687          3442.25 -1205.49-1205.66
GRID     26688          3442.25 -1215.93-1195.23
GRID     26689          3432.27 -1194.76-1216.39
GRID     26690          3432.27 -1205.49-1205.66
GRID     26691          3432.27 -1215.93-1195.23
GRID     26692          3422.3  -1194.76-1216.39
GRID     26693          3422.3  -1205.49-1205.66
GRID     26694          3422.3  -1215.93-1195.23
GRID     26695          3412.32 -1194.76-1216.39
GRID     26696          3412.32 -1205.49-1205.66
GRID     26697          3412.32 -1215.93-1195.23
GRID     26698          3402.34 -1194.76-1216.39
GRID     26699          3402.34 -1205.49-1205.66
GRID     26700          3402.34 -1215.93-1195.23
GRID     26701          3392.36 -1194.76-1216.39
GRID     26702          3392.36 -1205.49-1205.66
GRID     26703          3392.36 -1215.93-1195.23
GRID     26704          3382.39 -1194.76-1216.39
GRID     26705          3382.39 -1205.49-1205.66
GRID     26706          3382.39 -1215.93-1195.23
GRID     26707          3372.41 -1194.76-1216.39
GRID     26708          3372.41 -1205.49-1205.66
GRID     26709          3372.41 -1215.93-1195.23
GRID     26710          3362.43 -1194.76-1216.39
GRID     26711          3362.43 -1205.49-1205.66
GRID     26712          3362.43 -1215.93-1195.23
GRID     26713          3352.45 -1194.76-1216.39
GRID     26714          3352.45 -1205.49-1205.66
GRID     26715          3352.45 -1215.93-1195.23
GRID     26716          3342.48 -1194.76-1216.39
GRID     26717          3342.48 -1205.49-1205.66
GRID     26718          3342.48 -1215.93-1195.23
GRID     26719          3332.5  -1194.76-1216.39
GRID     26720          3332.5  -1205.49-1205.66
GRID     26721          3332.5  -1215.93-1195.23
GRID     26722          3322.52 -1194.76-1216.39
GRID     26723          3322.52 -1205.49-1205.66
GRID     26724          3322.52 -1215.93-1195.23
GRID     26725          3312.55 -1194.76-1216.39
GRID     26726          3312.55 -1205.49-1205.66
GRID     26727          3312.55 -1215.93-1195.23
GRID     26728          3302.57 -1194.76-1216.39
GRID     26729          3302.57 -1205.49-1205.66
GRID     26730          3302.57 -1215.93-1195.23
GRID     26731          3292.59 -1194.76-1216.39
GRID     26732          3292.59 -1205.49-1205.66
GRID     26733          3292.59 -1215.93-1195.23
GRID     26734          3282.61 -1194.76-1216.39
GRID     26735          3282.61 -1205.49-1205.66
GRID     26736          3282.61 -1215.93-1195.23
GRID     26737          3272.64 -1194.76-1216.39
GRID     26738          3272.64 -1205.49-1205.66
GRID     26739          3272.64 -1215.93-1195.23
GRID     26740          3262.66 -1194.76-1216.39
GRID     26741          3262.66 -1205.49-1205.66
GRID     26742          3262.66 -1215.93-1195.23
GRID     26743          3252.68 -1194.76-1216.39
GRID     26744          3252.68 -1205.49-1205.66
GRID     26745          3252.68 -1215.93-1195.23
GRID     26746          3242.7  -1194.76-1216.39
GRID     26747          3242.7  -1205.49-1205.66
GRID     26748          3242.7  -1215.93-1195.23
GRID     26749          3232.73 -1194.76-1216.39
GRID     26750          3232.73 -1205.49-1205.66
GRID     26751          3232.73 -1215.93-1195.23
GRID     26752          3222.75 -1194.76-1216.39
GRID     26753          3222.75 -1205.49-1205.66
GRID     26754          3222.75 -1215.93-1195.23
GRID     26755          3212.77 -1194.76-1216.39
GRID     26756          3212.77 -1205.49-1205.66
GRID     26757          3212.77 -1215.93-1195.23
GRID     26758          3202.8  -1194.76-1216.39
GRID     26759          3202.8  -1205.49-1205.66
GRID     26760          3202.8  -1215.93-1195.23
GRID     26761          3192.82 -1194.76-1216.39
GRID     26762          3192.82 -1205.49-1205.66
GRID     26763          3192.82 -1215.93-1195.23
GRID     26764          3182.84 -1194.76-1216.39
GRID     26765          3182.84 -1205.49-1205.66
GRID     26766          3182.84 -1215.93-1195.23
GRID     26767          3172.86 -1194.76-1216.39
GRID     26768          3172.86 -1205.49-1205.66
GRID     26769          3172.86 -1215.93-1195.23
GRID     26770          3162.89 -1194.76-1216.39
GRID     26771          3162.89 -1205.49-1205.66
GRID     26772          3162.89 -1215.93-1195.23
GRID     26773          3152.91 -1194.76-1216.39
GRID     26774          3152.91 -1205.49-1205.66
GRID     26775          3152.91 -1215.93-1195.23
GRID     26776          3142.93 -1194.76-1216.39
GRID     26777          3142.93 -1205.49-1205.66
GRID     26778          3142.93 -1215.93-1195.23
GRID     26779          3132.95 -1194.76-1216.39
GRID     26780          3132.95 -1205.49-1205.66
GRID     26781          3132.95 -1215.93-1195.23
GRID     26782          3122.98 -1194.76-1216.39
GRID     26783          3122.98 -1205.49-1205.66
GRID     26784          3122.98 -1215.93-1195.23
GRID     26785          3113.   -1194.76-1216.39
GRID     26786          3113.   -1205.49-1205.66
GRID     26787          3113.   -1215.93-1195.23
GRID     26788          3103.02 -1194.76-1216.39
GRID     26789          3103.02 -1205.49-1205.66
GRID     26790          3103.02 -1215.93-1195.23
GRID     26791          3093.05 -1194.76-1216.39
GRID     26792          3093.05 -1205.49-1205.66
GRID     26793          3093.05 -1215.93-1195.23
GRID     26794          3083.07 -1194.76-1216.39
GRID     26795          3083.07 -1205.49-1205.66
GRID     26796          3083.07 -1215.93-1195.23
GRID     26797          3073.09 -1194.76-1216.39
GRID     26798          3073.09 -1205.49-1205.66
GRID     26799          3073.09 -1215.93-1195.23
GRID     26800          3063.11 -1194.76-1216.39
GRID     26801          3063.11 -1205.49-1205.66
GRID     26802          3063.11 -1215.93-1195.23
GRID     26803          3053.14 -1194.76-1216.39
GRID     26804          3053.14 -1205.49-1205.66
GRID     26805          3053.14 -1215.93-1195.23
GRID     26806          3043.16 -1194.76-1216.39
GRID     26807          3043.16 -1205.49-1205.66
GRID     26808          3043.16 -1215.93-1195.23
GRID     26809          3033.18 -1194.76-1216.39
GRID     26810          3033.18 -1205.49-1205.66
GRID     26811          3033.18 -1215.93-1195.23
GRID     26812          3023.2  -1194.76-1216.39
GRID     26813          3023.2  -1205.49-1205.66
GRID     26814          3023.2  -1215.93-1195.23
GRID     26815          3013.23 -1194.76-1216.39
GRID     26816          3013.23 -1205.49-1205.66
GRID     26817          3013.23 -1215.93-1195.23
GRID     26818          3003.25 -1194.76-1216.39
GRID     26819          3003.25 -1205.49-1205.66
GRID     26820          3003.25 -1215.93-1195.23
GRID     26821          2993.27 -1194.76-1216.39
GRID     26822          2993.27 -1205.49-1205.66
GRID     26823          2993.27 -1215.93-1195.23
GRID     26824          2983.3  -1194.76-1216.39
GRID     26825          2983.3  -1205.49-1205.66
GRID     26826          2983.3  -1215.93-1195.23
GRID     26827          2973.32 -1194.76-1216.39
GRID     26828          2973.32 -1205.49-1205.66
GRID     26829          2973.32 -1215.93-1195.23
GRID     26830          2963.34 -1194.76-1216.39
GRID     26831          2963.34 -1205.49-1205.66
GRID     26832          2963.34 -1215.93-1195.23
GRID     26833          2953.36 -1194.76-1216.39
GRID     26834          2953.36 -1205.49-1205.66
GRID     26835          2953.36 -1215.93-1195.23
GRID     26836          2943.39 -1194.76-1216.39
GRID     26837          2943.39 -1205.49-1205.66
GRID     26838          2943.39 -1215.93-1195.23
GRID     26839          2933.41 -1194.76-1216.39
GRID     26840          2933.41 -1205.49-1205.66
GRID     26841          2933.41 -1215.93-1195.23
GRID     26842          2923.43 -1194.76-1216.39
GRID     26843          2923.43 -1205.49-1205.66
GRID     26844          2923.43 -1215.93-1195.23
GRID     26845          2913.45 -1194.76-1216.39
GRID     26846          2913.45 -1205.49-1205.66
GRID     26847          2913.45 -1215.93-1195.23
GRID     26848          2903.48 -1194.76-1216.39
GRID     26849          2903.48 -1205.49-1205.66
GRID     26850          2903.48 -1215.93-1195.23
GRID     26851          2893.5  -1194.76-1216.39
GRID     26852          2893.5  -1205.49-1205.66
GRID     26853          2893.5  -1215.93-1195.23
GRID     26854          2883.52 -1194.76-1216.39
GRID     26855          2883.52 -1205.49-1205.66
GRID     26856          2883.52 -1215.93-1195.23
GRID     26857          2873.55 -1194.76-1216.39
GRID     26858          2873.55 -1205.49-1205.66
GRID     26859          2873.55 -1215.93-1195.23
GRID     26860          2863.57 -1194.76-1216.39
GRID     26861          2863.57 -1205.49-1205.66
GRID     26862          2863.57 -1215.93-1195.23
GRID     26863          2853.59 -1194.76-1216.39
GRID     26864          2853.59 -1205.49-1205.66
GRID     26865          2853.59 -1215.93-1195.23
GRID     26866          3512.09 -1177.59-1226.6
GRID     26867          3502.11 -1167.59-1226.6
GRID     26868          3492.14 -1177.59-1226.6
GRID     26869          3492.14 -1167.59-1226.6
GRID     26870          3482.16 -1177.59-1226.6
GRID     26871          3482.16 -1167.59-1226.6
GRID     26872          3472.18 -1177.59-1226.6
GRID     26873          3472.18 -1167.59-1226.6
GRID     26874          3462.2  -1177.59-1226.6
GRID     26875          3462.2  -1167.59-1226.6
GRID     26876          3452.23 -1177.59-1226.6
GRID     26877          3452.23 -1167.59-1226.6
GRID     26878          3442.25 -1177.59-1226.6
GRID     26879          3442.25 -1167.59-1226.6
GRID     26880          3432.27 -1177.59-1226.6
GRID     26881          3432.27 -1167.59-1226.6
GRID     26882          3422.3  -1177.59-1226.6
GRID     26883          3422.3  -1167.59-1226.6
GRID     26884          3412.32 -1177.59-1226.6
GRID     26885          3412.32 -1167.59-1226.6
GRID     26886          3402.34 -1177.59-1226.6
GRID     26887          3402.34 -1167.59-1226.6
GRID     26888          3392.36 -1167.59-1226.6
GRID     26889          3382.39 -1177.59-1226.6
GRID     26890          3382.39 -1167.59-1226.6
GRID     26891          3372.41 -1177.59-1226.6
GRID     26892          3372.41 -1167.59-1226.6
GRID     26893          3362.43 -1177.59-1226.6
GRID     26894          3362.43 -1167.59-1226.6
GRID     26895          3352.45 -1177.59-1226.6
GRID     26896          3352.45 -1167.59-1226.6
GRID     26897          3342.48 -1177.59-1226.6
GRID     26898          3342.48 -1167.59-1226.6
GRID     26899          3332.5  -1177.59-1226.6
GRID     26900          3332.5  -1167.59-1226.6
GRID     26901          3322.52 -1177.59-1226.6
GRID     26902          3322.52 -1167.59-1226.6
GRID     26903          3312.55 -1177.59-1226.6
GRID     26904          3312.55 -1167.59-1226.6
GRID     26905          3302.57 -1177.59-1226.6
GRID     26906          3302.57 -1167.59-1226.6
GRID     26907          3292.59 -1177.59-1226.6
GRID     26908          3292.59 -1167.59-1226.6
GRID     26909          3282.61 -1177.59-1226.6
GRID     26910          3282.61 -1167.59-1226.6
GRID     26911          3272.64 -1177.59-1226.6
GRID     26912          3272.64 -1167.59-1226.6
GRID     26913          3262.66 -1177.59-1226.6
GRID     26914          3262.66 -1167.59-1226.6
GRID     26915          3252.68 -1167.59-1226.6
GRID     26916          3242.7  -1177.59-1226.6
GRID     26917          3242.7  -1167.59-1226.6
GRID     26918          3232.73 -1177.59-1226.6
GRID     26919          3232.73 -1167.59-1226.6
GRID     26920          3222.75 -1177.59-1226.6
GRID     26921          3222.75 -1167.59-1226.6
GRID     26922          3212.77 -1177.59-1226.6
GRID     26923          3212.77 -1167.59-1226.6
GRID     26924          3202.8  -1177.59-1226.6
GRID     26925          3202.8  -1167.59-1226.6
GRID     26926          3192.82 -1177.59-1226.6
GRID     26927          3192.82 -1167.59-1226.6
GRID     26928          3182.84 -1177.59-1226.6
GRID     26929          3182.84 -1167.59-1226.6
GRID     26930          3172.86 -1177.59-1226.6
GRID     26931          3172.86 -1167.59-1226.6
GRID     26932          3162.89 -1177.59-1226.6
GRID     26933          3162.89 -1167.59-1226.6
GRID     26934          3152.91 -1177.59-1226.6
GRID     26935          3152.91 -1167.59-1226.6
GRID     26936          3142.93 -1177.59-1226.6
GRID     26937          3142.93 -1167.59-1226.6
GRID     26938          3132.95 -1177.59-1226.6
GRID     26939          3132.95 -1167.59-1226.6
GRID     26940          3122.98 -1167.59-1226.6
GRID     26941          3113.   -1177.59-1226.6
GRID     26942          3113.   -1167.59-1226.6
GRID     26943          3103.02 -1177.59-1226.6
GRID     26944          3103.02 -1167.59-1226.6
GRID     26945          3093.05 -1177.59-1226.6
GRID     26946          3093.05 -1167.59-1226.6
GRID     26947          3083.07 -1177.59-1226.6
GRID     26948          3083.07 -1167.59-1226.6
GRID     26949          3073.09 -1177.59-1226.6
GRID     26950          3073.09 -1167.59-1226.6
GRID     26951          3063.11 -1177.59-1226.6
GRID     26952          3063.11 -1167.59-1226.6
GRID     26953          3053.14 -1177.59-1226.6
GRID     26954          3053.14 -1167.59-1226.6
GRID     26955          3043.16 -1177.59-1226.6
GRID     26956          3043.16 -1167.59-1226.6
GRID     26957          3033.18 -1177.59-1226.6
GRID     26958          3033.18 -1167.59-1226.6
GRID     26959          3023.2  -1177.59-1226.6
GRID     26960          3023.2  -1167.59-1226.6
GRID     26961          3013.23 -1177.59-1226.6
GRID     26962          3013.23 -1167.59-1226.6
GRID     26963          3003.25 -1177.59-1226.6
GRID     26964          3003.25 -1167.59-1226.6
GRID     26965          2993.27 -1177.59-1226.6
GRID     26966          2993.27 -1167.59-1226.6
GRID     26967          2983.3  -1167.59-1226.6
GRID     26968          2973.32 -1177.59-1226.6
GRID     26969          2973.32 -1167.59-1226.6
GRID     26970          2963.34 -1177.59-1226.6
GRID     26971          2963.34 -1167.59-1226.6
GRID     26972          2953.36 -1177.59-1226.6
GRID     26973          2953.36 -1167.59-1226.6
GRID     26974          2943.39 -1177.59-1226.6
GRID     26975          2943.39 -1167.59-1226.6
GRID     26976          2933.41 -1177.59-1226.6
GRID     26977          2933.41 -1167.59-1226.6
GRID     26978          2923.43 -1177.59-1226.6
GRID     26979          2923.43 -1167.59-1226.6
GRID     26980          2913.45 -1177.59-1226.6
GRID     26981          2913.45 -1167.59-1226.6
GRID     26982          2903.48 -1177.59-1226.6
GRID     26983          2903.48 -1167.59-1226.6
GRID     26984          2893.5  -1177.59-1226.6
GRID     26985          2893.5  -1167.59-1226.6
GRID     26986          2883.52 -1177.59-1226.6
GRID     26987          2883.52 -1167.59-1226.6
GRID     26988          2873.55 -1177.59-1226.6
GRID     26989          2873.55 -1167.59-1226.6
GRID     26990          2863.57 -1167.59-1226.6
GRID     26991          2853.59 -1177.59-1226.6
GRID     26992          2853.59 -1167.59-1226.6
GRID     26993          3512.09 -1167.59-1226.6
GRID     26994          3272.64 -1262.34-1226.6
GRID     26995          3202.8  -1262.34-1226.6
GRID     26996          3172.86 -1262.34-1226.6
GRID     26997          3043.16 -1262.34-1226.6
GRID     26998          3482.16 -1245.4 -1183.68
GRID     26999          3402.34 -1245.4 -1183.68
GRID     27000          3392.36 -1245.4 -1183.68
GRID     27001          3272.64 -1245.4 -1183.68
GRID     27002          3122.98 -1245.4 -1183.68
GRID     27003          3023.2  -1245.4 -1183.68
GRID     27004          2993.27 -1245.4 -1183.68
GRID     27005          2983.3  -1245.4 -1183.68
GRID     27006          2853.59 -1245.4 -1183.68
GRID     27007          3362.43 -1245.4 -1204.88
GRID     27008          3332.5  -1245.4 -1204.88
GRID     27009          3019.2  -1245.4 -1195.48
GRID     27037          3432.09 -1072.45-1183.8
GRID     27046          3432.09 -1227.76-1183.8
GRID     28500          3502.5  -1254.72-1226.6
GRID     29001          2939.28 -1062.05-1266.92 36
GRID     29002          3485.31 -1045.93-1646.86 36
GRID     30000          3183.34 -1197.36-1601.67
GRID     30001          3513.1  -1361.  -1243.3
GRID     30002          3513.14 -1035.34-1660.
GRID     30003          2866.72 -1245.  -1265.
GRID     30004          2854.6  -1033.  -1555.
GRID     30005          3510.74 -1335.  -1340.
GRID     32885          3492.21 -997.8  -1538.15
GRID     32886          3494.61 -997.8  -1553.06
GRID     32888          3513.14 -1046.81-1291.6
GRID     33051          2983.3  -1177.59-1226.6
GRID     61340          3513.1  -1374.55-1236.6
GRID     61360          3513.1  -1360.8 -1256.6
GRID     61440          3513.1  -1347.31-1236.6
GRID     70000          3432.09 -1227.76-1183.8
GRID     70001          3435.09 -1245.4 -1202.16
GRID     70002          3435.09 -1054.6 -1202.4
GRID     70003          3432.09 -1072.45-1183.8
GRID     70004          3389.59 -1227.76-1183.8
GRID     70005          3386.59 -1245.4 -1202.16
GRID     70006          3389.59 -1072.45-1183.8
GRID     70007          3386.59 -1054.6 -1202.4
GRID     70008          2921.59 -1072.45-1183.8
GRID     70009          2921.59 -1227.76-1183.8
GRID     70010          2918.59 -1054.6 -1202.4
GRID     70011          2918.59 -1245.4 -1202.16
GRID     70012          3016.59 -1072.45-1183.8
GRID     70013          3016.59 -1227.76-1183.8
GRID     70014          3019.59 -1054.6 -1202.4
GRID     70015          3019.59 -1245.4 -1202.16
GRID     94000          3323.5  -1072.  -1226.6
GRID     120560         3513.14 -1046.01-1632.25
GRID     120620         3513.14 -1046.01-1693.25
GRID     121280         3513.14 -1014.01-1656.95
GRID     200680         2866.72 -1251.92-1257.58 33
GRID     200760         2866.72 -1239.78-1274.3  33
GRID     200840         2866.72 -1228.88-1289.3  33
GRID     200950         2866.72 -1264.09-1240.84 33
GRID     220030         2854.6  -1050.4 -1513.44
GRID     220040         2854.6  -1050.4 -1537.57
GRID     220050         2854.6  -1050.4 -1561.7
GRID     220060         2854.6  -1050.4 -1585.82
GRID     220070         2854.6  -1009.6 -1594.15
GRID     220080         2854.6  -1009.6 -1572.18
GRID     220090         2854.6  -1009.6 -1549.53
GRID     240260         3454.44 -1285.35-1310.63
GRID     240310         3454.44 -1272.33-1310.32
GRID     240340         3454.44 -1213.99-1317.27
GRID     240670         3454.44 -1278.99-1295.27
GRID     241170         3454.44 -1213.99-1291.27
GRID     241390         3454.44 -1153.27-1309.81
GRID     242030         3454.44 -1148.99-1297.27
GRID     242140         3454.44 -1144.19-1309.36
GRID     244270         3510.74 -1343.26-1330.97
GRID     244290         3510.74 -1327.87-1350.67
GRID     290020         3485.31 -1045.93-1646.86
GRID     300010         3513.1  -1361.  -1243.3
GRID     300020         3513.14 -1035.34-1660.
GRID     300030         2866.72 -1245.  -1265.
GRID     300040         2854.6  -1033.  -1555.
GRID     300050         3510.74 -1335.  -1340.
$ Loads for Load Case : ANALYSE_STATIQUE.SC1
SPCADD   2       8       1
LOAD     5      1.      1.       1
$ Displacement Constraints of Load Set : grid.ps
SPC1     8       5       25835   25865   25973   25988   26291   26306
         26411   26444
$ Displacement Constraints of Load Set : spc1.1
SPC1     1       123456  30000
$ Loads for Load Case : ANALYSE_STATIQUE.SC2
LOAD     7      1.      1.       2
$ Loads for Load Case : ANALYSE_STATIQUE.SC3
LOAD     9      1.      1.       3
$ Gravity Loading of Load Set : grav.1
GRAV     1       0      9810.   1.       0.      0.
$ Gravity Loading of Load Set : grav.2
GRAV     2       0      9810.    0.     1.       0.
$ Gravity Loading of Load Set : grav.3
GRAV     3       0      9810.    0.      0.     1.
$ Referenced Coordinate Frames
CORD2R   33             2866.72 -1245.14-1266.922866.76 1483.25 715.357
        2866.72 -3227.421461.47
CORD2R   34             2894.08 -1052.25-1301.441283.26 -1052.2 1628.05
        1073.71 1567.08 -2302.44
CORD2R   35             2857.6  -1111.01-1306.522857.48 829.924 1402.72
        6190.35 -1111.01-1306.38
CORD2R   36              0.      0.      0.      0.      0.     1.
        1.       0.      0.
ENDDATA 7031ab02
